168
Lattice="40.0 0 0 0 40.0 0 0 0 5.47" Properties=species:S:1:pos:R:3 pbc="T T T"
Si  18.64414332  18.64414332  1.37640247
Si  17.28227973  20.00000000  2.73500000
Si  18.64414332  21.35585668  4.09359753
Si  20.00000000  17.28227973  2.73500000
Si  21.35585668  18.64414332  4.09359753
Si  20.00000000  20.00000000  0.00000000
Si  21.35585668  21.35585668  1.37640247
Si  20.00000000  22.71772027  2.73500000
Si  22.71772027  20.00000000  2.73500000
H  17.78005991  17.78005991  0.50208789
H  16.39899970  20.85781099  1.87994075
H  16.39899970  19.14218901  3.59005925
H  17.78005991  22.21994009  4.96791211
H  19.14218901  16.39899970  3.59005925
H  20.85781099  16.39899970  1.87994075
H  22.21994009  17.78005991  4.96791211
H  22.21994009  22.21994009  0.50208789
H  20.85781099  23.60100030  3.59005925
H  19.14218901  23.60100030  1.87994075
H  23.60100030  19.14218901  1.87994075
H  23.60100030  20.85781099  3.59005925
Si  10.38490417  15.85267409  3.64666667
Si  11.38985832  18.10898542  1.82333333
Si  10.38490417  20.36529674  0.00000000
Si  8.93335832  22.36376823  1.82333333
Si  21.21585832  9.59941980  1.82333333
Si  10.38490417  24.36223971  3.64666667
Si  11.38985832  26.61855104  1.82333333
Si  22.66740417  11.59789129  3.64666667
Si  25.12390417  11.85573112  0.00000000
Si  12.84140417  28.61702252  3.64666667
Si  15.29790417  28.87486236  0.00000000
Si  27.58040417  11.59789129  3.64666667
Si  28.58535832  13.85420261  1.82333333
Si  17.75440417  28.61702252  3.64666667
Si  20.21090417  28.87486236  0.00000000
Si  18.75935832  30.87333384  1.82333333
Si  30.03690417  15.85267409  3.64666667
Si  31.04185832  18.10898542  1.82333333
Si  30.03690417  20.36529674  0.00000000
Si  28.58535832  22.36376823  1.82333333
Si  27.58040417  24.62007955  0.00000000
Si  26.12885832  26.61855104  1.82333333
Si  22.66740417  28.61702252  3.64666667
Si  25.12390417  28.87486236  0.00000000
Si  30.03690417  24.36223971  3.64666667
O  9.86707397  14.47582638  2.99008433
O  9.37970437  16.35048368  4.81341767
O  11.83620437  15.61270434  4.30324900
O  10.45638832  16.97210745  2.47991567
O  12.32357397  17.48736165  0.65658233
O  10.45638832  19.24586338  1.16675100
O  12.32357397  18.73060919  2.99008433
O  11.83620437  20.60526649  4.81341767
O  9.37970437  19.86748715  4.30324900
O  7.99988832  21.22689026  2.47991567
O  9.86707397  21.74214446  0.65658233
O  7.99988832  23.50064619  1.16675100
O  9.86707397  22.98539200  2.99008433
O  9.37970437  24.86004930  4.81341767
O  20.28238832  8.46254183  2.47991567
O  22.14957397  8.97779603  0.65658233
O  20.28238832  10.73629777  1.16675100
O  22.14957397  10.22104357  2.99008433
O  21.66220437  12.09570087  4.81341767
O  11.83620437  24.12226996  4.30324900
O  10.45638832  25.48167307  2.47991567
O  12.32357397  25.99692727  0.65658233
O  10.45638832  27.75542900  1.16675100
O  12.32357397  27.24017480  2.99008433
O  11.83620437  29.11483211  4.81341767
O  25.19538832  10.73629777  1.16675100
O  27.06257397  10.22104357  2.99008433
O  26.57520437  12.09570087  4.81341767
O  24.11870437  11.35792154  4.30324900
O  22.73888832  12.71732464  2.47991567
O  24.60607397  13.23257884  0.65658233
O  15.36938832  27.75542900  1.16675100
O  17.23657397  27.24017480  2.99008433
O  16.74920437  29.11483211  4.81341767
O  14.29270437  28.37705277  4.30324900
O  12.91288832  29.73645588  2.47991567
O  14.78007397  30.25171008  0.65658233
O  29.03170437  11.35792154  4.30324900
O  27.65188832  12.71732464  2.47991567
O  29.51907397  13.23257884  0.65658233
O  27.65188832  14.99108058  1.16675100
O  29.51907397  14.47582638  2.99008433
O  29.03170437  16.35048368  4.81341767
O  20.28238832  27.75542900  1.16675100
O  22.14957397  27.24017480  2.99008433
O  21.66220437  29.11483211  4.81341767
O  19.20570437  28.37705277  4.30324900
O  17.82588832  29.73645588  2.47991567
O  19.69307397  30.25171008  0.65658233
O  17.82588832  32.01021181  1.16675100
O  19.69307397  31.49495761  2.99008433
O  31.48820437  15.61270434  4.30324900
O  30.10838832  16.97210745  2.47991567
O  31.97557397  17.48736165  0.65658233
O  30.10838832  19.24586338  1.16675100
O  31.97557397  18.73060919  2.99008433
O  31.48820437  20.60526649  4.81341767
O  29.03170437  19.86748715  4.30324900
O  27.65188832  21.22689026  2.47991567
O  29.51907397  21.74214446  0.65658233
O  27.65188832  23.50064619  1.16675100
O  29.51907397  22.98539200  2.99008433
O  29.03170437  24.86004930  4.81341767
O  26.57520437  24.12226996  4.30324900
O  25.19538832  25.48167307  2.47991567
O  27.06257397  25.99692727  0.65658233
O  25.19538832  27.75542900  1.16675100
O  27.06257397  27.24017480  2.99008433
O  26.57520437  29.11483211  4.81341767
O  24.11870437  28.37705277  4.30324900
O  22.73888832  29.73645588  2.47991567
O  24.60607397  30.25171008  0.65658233
O  31.48820437  24.12226996  4.30324900
O  30.10838832  25.48167307  2.47991567
H  9.30747989  14.10327507  2.29082760
H  8.50580020  16.20598528  5.20878042
H  12.43864031  15.91105139  5.00250574
H  12.63538677  16.65828923  0.26121958
H  12.63538677  19.55968160  3.38544709
H  12.43864031  20.30691945  4.11416093
H  8.50580020  20.01198556  3.90788625
H  7.95704647  20.55599191  3.17917240
H  7.95704647  24.17154454  0.46749426
H  8.50580020  24.71555089  5.20878042
H  20.23954647  7.79164349  3.17917240
H  22.46138677  8.14872361  0.26121958
H  20.23954647  11.40719611  0.46749426
H  20.78830020  11.95120247  5.20878042
H  12.43864031  24.42061700  5.00250574
H  12.63538677  25.16785485  0.26121958
H  10.41354647  28.42632735  0.46749426
H  10.96230020  28.97033370  5.20878042
H  25.75747970  10.05172376  1.56211375
H  26.50297989  9.84849226  2.29082760
H  23.30097970  13.40189865  2.08455291
H  24.04647989  13.60513015  1.35583907
H  15.93147970  27.07085499  1.56211375
H  16.67697989  26.86762350  2.29082760
H  13.47497970  30.42102989  2.08455291
H  14.22047989  30.62426138  1.35583907
H  29.63414031  11.65626858  5.00250574
H  29.83088677  12.40350642  0.26121958
H  27.60904647  15.66197892  0.46749426
H  28.15780020  16.20598528  5.20878042
H  20.84447970  27.07085499  1.56211375
H  21.58997989  26.86762350  2.29082760
H  17.78304647  32.68111016  0.46749426
H  20.00488677  32.32403003  3.38544709
H  32.09064031  15.91105139  5.00250574
H  32.28738677  16.65828923  0.26121958
H  32.28738677  19.55968160  3.38544709
H  32.09064031  20.30691945  4.11416093
H  28.15780020  20.01198556  3.90788625
H  27.60904647  20.55599191  3.17917240
H  25.70130020  24.26676837  3.90788625
H  25.15254647  24.81077472  3.17917240
H  27.37438677  28.06924722  3.38544709
H  27.17764031  28.81648507  4.11416093
H  23.30097970  30.42102989  2.08455291
H  24.04647989  30.62426138  1.35583907
H  32.09064031  24.42061700  5.00250574
H  30.67047970  26.16624708  2.08455291
