
     Program PWSCF v.6.7MaX starts on 23Mar2026 at 13:29:36 

     This program is part of the open-source Quantum ESPRESSO suite
     for quantum simulation of materials; please cite
         "P. Giannozzi et al., J. Phys.:Condens. Matter 21 395502 (2009);
         "P. Giannozzi et al., J. Phys.:Condens. Matter 29 465901 (2017);
          URL http://www.quantum-espresso.org", 
     in publications or presentations arising from this work. More details at
     http://www.quantum-espresso.org/quote

     Parallel version (MPI), running on     1 processors

     MPI processes distributed on     1 nodes
     Waiting for input...
     Reading input from standard input

     Current dimensions of program PWSCF are:
     Max number of different atomic species (ntypx) = 10
     Max number of k-points (npk) =  40000
     Max angular momentum in pseudopotentials (lmaxx) =  3

     gamma-point specific algorithms are used

     Subspace diagonalization in iterative solution of the eigenvalue problem:
     a serial algorithm will be used

     Message from routine setup:
     using ibrav=0 with symmetry is DISCOURAGED, use correct ibrav instead

     G-vector sticks info
     --------------------
     sticks:   dense  smooth     PW     G-vecs:    dense   smooth      PW
     Sum        9769    4897   1225               727751   257295   32231



     bravais-lattice index     =            0
     lattice parameter (alat)  =      20.6591  a.u.
     unit-cell volume          =    8817.2783 (a.u.)^3
     number of atoms/cell      =           64
     number of atomic types    =            1
     number of electrons       =       256.00
     number of Kohn-Sham states=          154
     kinetic-energy cutoff     =      36.0000  Ry
     charge density cutoff     =     288.0000  Ry
     scf convergence threshold =      1.0E-10
     mixing beta               =       0.7000
     number of iterations used =            8  plain     mixing
     Exchange-correlation= PBE
                           (   1   4   3   4   0   0   0)

     celldm(1)=  20.659106  celldm(2)=   0.000000  celldm(3)=   0.000000
     celldm(4)=   0.000000  celldm(5)=   0.000000  celldm(6)=   0.000000

     crystal axes: (cart. coord. in units of alat)
               a(1) = (   1.000000   0.000000   0.000000 )  
               a(2) = (   0.000000   1.000000   0.000000 )  
               a(3) = (   0.000000   0.000000   1.000000 )  

     reciprocal axes: (cart. coord. in units 2 pi/alat)
               b(1) = (  1.000000  0.000000  0.000000 )  
               b(2) = (  0.000000  1.000000  0.000000 )  
               b(3) = (  0.000000  0.000000  1.000000 )  


     PseudoPot. # 1 for Si read from file:
     ./pseudo/Si.pbe-n-rrkjus_psl.1.0.0.UPF
     MD5 check sum: fa25574f73a70a4139f2adfbefec430c
     Pseudo is Ultrasoft + core correction, Zval =  4.0
     Generated using &quot;atomic&quot; code by A. Dal Corso  v.6.3
     Using radial grid of 1141 points,  6 beta functions with: 
                l(1) =   0
                l(2) =   0
                l(3) =   1
                l(4) =   1
                l(5) =   2
                l(6) =   2
     Q(r) pseudized with 0 coefficients 


     atomic species   valence    mass     pseudopotential
        Si             4.00    28.08550     Si( 1.00)

      2 Sym. Ops. (no inversion) found



   Cartesian axes

     site n.     atom                  positions (alat units)
         1           Si  tau(   1) = (   0.4384681   0.4375000   0.4375000  )
         2           Si  tau(   2) = (   0.9375000   0.4375000   0.4375000  )
         3           Si  tau(   3) = (   0.4375000   0.9375000   0.4375000  )
         4           Si  tau(   4) = (   0.9375000   0.9375000   0.4375000  )
         5           Si  tau(   5) = (   0.4375000   0.4375000   0.9375000  )
         6           Si  tau(   6) = (   0.9375000   0.4375000   0.9375000  )
         7           Si  tau(   7) = (   0.4375000   0.9375000   0.9375000  )
         8           Si  tau(   8) = (   0.9375000   0.9375000   0.9375000  )
         9           Si  tau(   9) = (   0.4375000   0.1875000   0.1875000  )
        10           Si  tau(  10) = (   0.9375000   0.1875000   0.1875000  )
        11           Si  tau(  11) = (   0.4375000   0.6875000   0.1875000  )
        12           Si  tau(  12) = (   0.9375000   0.6875000   0.1875000  )
        13           Si  tau(  13) = (   0.4375000   0.1875000   0.6875000  )
        14           Si  tau(  14) = (   0.9375000   0.1875000   0.6875000  )
        15           Si  tau(  15) = (   0.4375000   0.6875000   0.6875000  )
        16           Si  tau(  16) = (   0.9375000   0.6875000   0.6875000  )
        17           Si  tau(  17) = (   0.1875000   0.4375000   0.1875000  )
        18           Si  tau(  18) = (   0.6875000   0.4375000   0.1875000  )
        19           Si  tau(  19) = (   0.1875000   0.9375000   0.1875000  )
        20           Si  tau(  20) = (   0.6875000   0.9375000   0.1875000  )
        21           Si  tau(  21) = (   0.1875000   0.4375000   0.6875000  )
        22           Si  tau(  22) = (   0.6875000   0.4375000   0.6875000  )
        23           Si  tau(  23) = (   0.1875000   0.9375000   0.6875000  )
        24           Si  tau(  24) = (   0.6875000   0.9375000   0.6875000  )
        25           Si  tau(  25) = (   0.1875000   0.1875000   0.4375000  )
        26           Si  tau(  26) = (   0.6875000   0.1875000   0.4375000  )
        27           Si  tau(  27) = (   0.1875000   0.6875000   0.4375000  )
        28           Si  tau(  28) = (   0.6875000   0.6875000   0.4375000  )
        29           Si  tau(  29) = (   0.1875000   0.1875000   0.9375000  )
        30           Si  tau(  30) = (   0.6875000   0.1875000   0.9375000  )
        31           Si  tau(  31) = (   0.1875000   0.6875000   0.9375000  )
        32           Si  tau(  32) = (   0.6875000   0.6875000   0.9375000  )
        33           Si  tau(  33) = (   0.0625000   0.0625000   0.0625000  )
        34           Si  tau(  34) = (   0.5625000   0.0625000   0.0625000  )
        35           Si  tau(  35) = (   0.0625000   0.5625000   0.0625000  )
        36           Si  tau(  36) = (   0.5625000   0.5625000   0.0625000  )
        37           Si  tau(  37) = (   0.0625000   0.0625000   0.5625000  )
        38           Si  tau(  38) = (   0.5625000   0.0625000   0.5625000  )
        39           Si  tau(  39) = (   0.0625000   0.5625000   0.5625000  )
        40           Si  tau(  40) = (   0.5625000   0.5625000   0.5625000  )
        41           Si  tau(  41) = (   0.0625000   0.3125000   0.3125000  )
        42           Si  tau(  42) = (   0.5625000   0.3125000   0.3125000  )
        43           Si  tau(  43) = (   0.0625000   0.8125000   0.3125000  )
        44           Si  tau(  44) = (   0.5625000   0.8125000   0.3125000  )
        45           Si  tau(  45) = (   0.0625000   0.3125000   0.8125000  )
        46           Si  tau(  46) = (   0.5625000   0.3125000   0.8125000  )
        47           Si  tau(  47) = (   0.0625000   0.8125000   0.8125000  )
        48           Si  tau(  48) = (   0.5625000   0.8125000   0.8125000  )
        49           Si  tau(  49) = (   0.3125000   0.0625000   0.3125000  )
        50           Si  tau(  50) = (   0.8125000   0.0625000   0.3125000  )
        51           Si  tau(  51) = (   0.3125000   0.5625000   0.3125000  )
        52           Si  tau(  52) = (   0.8125000   0.5625000   0.3125000  )
        53           Si  tau(  53) = (   0.3125000   0.0625000   0.8125000  )
        54           Si  tau(  54) = (   0.8125000   0.0625000   0.8125000  )
        55           Si  tau(  55) = (   0.3125000   0.5625000   0.8125000  )
        56           Si  tau(  56) = (   0.8125000   0.5625000   0.8125000  )
        57           Si  tau(  57) = (   0.3125000   0.3125000   0.0625000  )
        58           Si  tau(  58) = (   0.8125000   0.3125000   0.0625000  )
        59           Si  tau(  59) = (   0.3125000   0.8125000   0.0625000  )
        60           Si  tau(  60) = (   0.8125000   0.8125000   0.0625000  )
        61           Si  tau(  61) = (   0.3125000   0.3125000   0.5625000  )
        62           Si  tau(  62) = (   0.8125000   0.3125000   0.5625000  )
        63           Si  tau(  63) = (   0.3125000   0.8125000   0.5625000  )
        64           Si  tau(  64) = (   0.8125000   0.8125000   0.5625000  )

     number of k points=     1  Gaussian smearing, width (Ry)=  0.0100
                       cart. coord. in units 2pi/alat
        k(    1) = (   0.0000000   0.0000000   0.0000000), wk =   2.0000000

     Dense  grid:   363876 G-vectors     FFT dimensions: ( 120, 120, 120)

     Smooth grid:   128648 G-vectors     FFT dimensions: (  80,  80,  80)

     Estimated max dynamical RAM per process >       2.62 GB

     Initial potential from superposition of free atoms

     starting charge  255.96421, renormalised to  256.00000
     Starting wfcs are  256 randomized atomic wfcs

     total cpu time spent up to now is        4.2 secs

     Self-consistent Calculation

     iteration #  1     ecut=    36.00 Ry     beta= 0.70
     Davidson diagonalization with overlap
     ethr =  1.00E-02,  avg # of iterations =  4.0

     Threshold (ethr) on eigenvalues was too large:
     Diagonalizing with lowered threshold

     Davidson diagonalization with overlap
     ethr =  6.76E-04,  avg # of iterations =  2.0

     total cpu time spent up to now is       15.9 secs

     total energy              =    -730.30721527 Ry
     estimated scf accuracy    <       1.89444361 Ry

     iteration #  2     ecut=    36.00 Ry     beta= 0.70
     Davidson diagonalization with overlap
     ethr =  7.40E-04,  avg # of iterations =  1.0

     total cpu time spent up to now is       21.5 secs

     total energy              =    -730.37209830 Ry
     estimated scf accuracy    <       0.09574842 Ry

     iteration #  3     ecut=    36.00 Ry     beta= 0.70
     Davidson diagonalization with overlap
     ethr =  3.74E-05,  avg # of iterations =  5.0

     total cpu time spent up to now is       28.4 secs

     total energy              =    -730.38872478 Ry
     estimated scf accuracy    <       0.00254846 Ry

     iteration #  4     ecut=    36.00 Ry     beta= 0.70
     Davidson diagonalization with overlap
     ethr =  9.95E-07,  avg # of iterations =  5.0

     total cpu time spent up to now is       36.8 secs

     total energy              =    -730.38992499 Ry
     estimated scf accuracy    <       0.00173519 Ry

     iteration #  5     ecut=    36.00 Ry     beta= 0.70
     Davidson diagonalization with overlap
     ethr =  6.78E-07,  avg # of iterations =  2.0

     total cpu time spent up to now is       43.4 secs

     total energy              =    -730.39026178 Ry
     estimated scf accuracy    <       0.00009982 Ry

     iteration #  6     ecut=    36.00 Ry     beta= 0.70
     Davidson diagonalization with overlap
     ethr =  3.90E-08,  avg # of iterations =  4.0

     total cpu time spent up to now is       50.6 secs

     total energy              =    -730.39030175 Ry
     estimated scf accuracy    <       0.00004337 Ry

     iteration #  7     ecut=    36.00 Ry     beta= 0.70
     Davidson diagonalization with overlap
     ethr =  1.69E-08,  avg # of iterations =  2.0

     total cpu time spent up to now is       57.2 secs

     total energy              =    -730.39030765 Ry
     estimated scf accuracy    <       0.00000556 Ry

     iteration #  8     ecut=    36.00 Ry     beta= 0.70
     Davidson diagonalization with overlap
     ethr =  2.17E-09,  avg # of iterations =  4.0

     total cpu time spent up to now is       63.9 secs

     total energy              =    -730.39030868 Ry
     estimated scf accuracy    <       0.00000099 Ry

     iteration #  9     ecut=    36.00 Ry     beta= 0.70
     Davidson diagonalization with overlap
     ethr =  3.88E-10,  avg # of iterations = 15.0

     total cpu time spent up to now is       71.1 secs

     total energy              =    -730.39030891 Ry
     estimated scf accuracy    <       0.00000042 Ry

     iteration # 10     ecut=    36.00 Ry     beta= 0.70
     Davidson diagonalization with overlap
     ethr =  1.65E-10,  avg # of iterations =  2.0

     total cpu time spent up to now is       77.4 secs

     total energy              =    -730.39030897 Ry
     estimated scf accuracy    <       0.00000011 Ry

     iteration # 11     ecut=    36.00 Ry     beta= 0.70
     Davidson diagonalization with overlap
     ethr =  4.47E-11,  avg # of iterations =  2.0

     total cpu time spent up to now is       83.8 secs

     total energy              =    -730.39030897 Ry
     estimated scf accuracy    <       0.00000004 Ry

     iteration # 12     ecut=    36.00 Ry     beta= 0.70
     Davidson diagonalization with overlap
     ethr =  1.46E-11,  avg # of iterations =  4.0

     total cpu time spent up to now is       90.4 secs

     total energy              =    -730.39030898 Ry
     estimated scf accuracy    <          2.1E-09 Ry

     iteration # 13     ecut=    36.00 Ry     beta= 0.70
     Davidson diagonalization with overlap
     ethr =  8.17E-13,  avg # of iterations =  5.0

     total cpu time spent up to now is       97.6 secs

     total energy              =    -730.39030898 Ry
     estimated scf accuracy    <          1.6E-09 Ry

     iteration # 14     ecut=    36.00 Ry     beta= 0.70
     Davidson diagonalization with overlap
     ethr =  6.23E-13,  avg # of iterations =  2.0

     total cpu time spent up to now is      103.6 secs

     total energy              =    -730.39030898 Ry
     estimated scf accuracy    <          3.1E-10 Ry

     iteration # 15     ecut=    36.00 Ry     beta= 0.70
     Davidson diagonalization with overlap
     ethr =  1.21E-13,  avg # of iterations =  3.0

     total cpu time spent up to now is      110.1 secs

     End of self-consistent calculation

          k = 0.0000 0.0000 0.0000 ( 16116 PWs)   bands (ev):

    -5.7882  -4.7257  -4.7243  -4.7238  -4.7238  -4.7232  -4.7219  -3.7840
    -3.7812  -3.7801  -3.7799  -3.7798  -3.7798  -3.7798  -3.7798  -3.7797
    -3.7795  -3.7784  -3.7756  -3.5041  -3.5034  -3.5024  -3.5016  -1.7137
    -1.7126  -1.7115  -1.7115  -1.7105  -1.7095  -1.5592  -1.5575  -1.5556
    -1.5554  -1.5553  -1.5552  -1.5552  -1.5551  -1.5550  -1.5548  -1.5529
    -1.5511  -0.8435  -0.8424  -0.8419  -0.8407   0.5950   0.5953   0.5979
     0.5981   0.5981   0.5982   0.5982   0.5983   0.5983   0.5985   0.6011
     0.6014   2.2611   2.2627   2.2631   2.2632   2.2634   2.2635   2.2635
     2.2637   2.2639   2.2640   2.2643   2.2659   2.3553   2.3554   2.3558
     2.3570   2.3571   2.3571   2.3571   2.3572   2.3573   2.3584   2.3589
     2.3590   2.5243   2.5254   2.5263   2.5263   2.5274   2.5284   3.2358
     3.2367   3.2368   3.2368   3.2369   3.2377   4.1829   4.1855   4.1861
     4.1862   4.1864   4.1864   4.1864   4.1864   4.1865   4.1866   4.1873
     4.1898   4.7334   4.7355   4.7367   4.7368   4.7370   4.7371   4.7372
     4.7373   4.7375   4.7376   4.7388   4.7408   4.8599   4.8619   4.8623
     4.8624   4.8627   4.8629   4.8634   4.8654   6.0482   6.0498   6.0514
     6.7782   6.7787   6.7797   6.7797   6.7807   6.7812   7.1793   7.1796
     7.1808   7.1808   7.1820   7.1823   7.5096   7.5098   7.5100   7.5102
     8.4682   8.4690   8.4699   8.4700   8.4701   8.4719   8.4723   8.5829
     8.5838   8.5848

     the Fermi energy is     6.4065 ev

!    total energy              =    -730.39030898 Ry
     estimated scf accuracy    <          4.7E-11 Ry
     smearing contrib. (-TS)   =      -0.00003586 Ry
     internal energy E=F+TS    =    -730.39027312 Ry

     The total energy is F=E-TS. E is the sum of the following terms:
     one-electron contribution =     160.52036955 Ry
     hartree contribution      =      36.65987431 Ry
     xc contribution           =    -393.56102845 Ry
     ewald contribution        =    -534.00948853 Ry

     convergence has been achieved in  15 iterations

     Forces acting on atoms (cartesian axes, Ry/au):

     atom    1 type  1   force =    -0.00542761    0.00000019    0.00000019
     atom    2 type  1   force =     0.00001187    0.00000001    0.00000001
     atom    3 type  1   force =     0.00002585   -0.00000016   -0.00000016
     atom    4 type  1   force =     0.00002254   -0.00000010   -0.00000020
     atom    5 type  1   force =     0.00002585   -0.00000016   -0.00000016
     atom    6 type  1   force =     0.00002254   -0.00000020   -0.00000010
     atom    7 type  1   force =    -0.00011565    0.00000001    0.00000001
     atom    8 type  1   force =     0.00001698    0.00000016    0.00000016
     atom    9 type  1   force =    -0.00019709    0.00004500    0.00004500
     atom   10 type  1   force =    -0.00000406    0.00000211    0.00000211
     atom   11 type  1   force =    -0.00019725    0.00004446   -0.00004415
     atom   12 type  1   force =    -0.00000369    0.00000215   -0.00000193
     atom   13 type  1   force =    -0.00019725   -0.00004415    0.00004446
     atom   14 type  1   force =    -0.00000369   -0.00000193    0.00000215
     atom   15 type  1   force =    -0.00019743   -0.00004517   -0.00004517
     atom   16 type  1   force =    -0.00000361   -0.00000226   -0.00000226
     atom   17 type  1   force =     0.00006084   -0.00004421    0.00008571
     atom   18 type  1   force =     0.00006143   -0.00004492   -0.00008587
     atom   19 type  1   force =     0.00000215   -0.00000245   -0.00002408
     atom   20 type  1   force =     0.00000209   -0.00000215    0.00002379
     atom   21 type  1   force =     0.00006101    0.00004434   -0.00008566
     atom   22 type  1   force =     0.00006138    0.00004469    0.00008591
     atom   23 type  1   force =     0.00000214    0.00000216    0.00002419
     atom   24 type  1   force =     0.00000191    0.00000232   -0.00002370
     atom   25 type  1   force =     0.00006084    0.00008571   -0.00004421
     atom   26 type  1   force =     0.00006143   -0.00008587   -0.00004492
     atom   27 type  1   force =     0.00006101   -0.00008566    0.00004434
     atom   28 type  1   force =     0.00006138    0.00008591    0.00004469
     atom   29 type  1   force =     0.00000215   -0.00002408   -0.00000245
     atom   30 type  1   force =     0.00000209    0.00002379   -0.00000215
     atom   31 type  1   force =     0.00000214    0.00002419    0.00000216
     atom   32 type  1   force =     0.00000191   -0.00002370    0.00000232
     atom   33 type  1   force =    -0.00001073    0.00001984    0.00001984
     atom   34 type  1   force =     0.00008111    0.00001246    0.00001246
     atom   35 type  1   force =     0.00001391    0.00001258    0.00001428
     atom   36 type  1   force =    -0.00001732    0.00002038    0.00001767
     atom   37 type  1   force =     0.00001391    0.00001428    0.00001258
     atom   38 type  1   force =    -0.00001732    0.00001767    0.00002038
     atom   39 type  1   force =     0.00000152    0.00001729    0.00001729
     atom   40 type  1   force =     0.00137058    0.00086689    0.00086689
     atom   41 type  1   force =     0.00000122   -0.00001721   -0.00001721
     atom   42 type  1   force =     0.00137095   -0.00086697   -0.00086697
     atom   43 type  1   force =     0.00001390   -0.00001432   -0.00001254
     atom   44 type  1   force =    -0.00001742   -0.00001761   -0.00002042
     atom   45 type  1   force =     0.00001390   -0.00001254   -0.00001432
     atom   46 type  1   force =    -0.00001742   -0.00002042   -0.00001761
     atom   47 type  1   force =    -0.00001034   -0.00001992   -0.00001992
     atom   48 type  1   force =     0.00008095   -0.00001231   -0.00001231
     atom   49 type  1   force =    -0.00001720   -0.00001740    0.00002025
     atom   50 type  1   force =     0.00001408   -0.00001388    0.00001214
     atom   51 type  1   force =     0.00135763   -0.00084151    0.00084190
     atom   52 type  1   force =     0.00000132   -0.00001721    0.00001724
     atom   53 type  1   force =     0.00008017   -0.00001215    0.00001227
     atom   54 type  1   force =    -0.00001064   -0.00001966    0.00001997
     atom   55 type  1   force =    -0.00001734   -0.00002039    0.00001700
     atom   56 type  1   force =     0.00001418   -0.00001251    0.00001384
     atom   57 type  1   force =    -0.00001720    0.00002025   -0.00001740
     atom   58 type  1   force =     0.00001408    0.00001214   -0.00001388
     atom   59 type  1   force =     0.00008017    0.00001227   -0.00001215
     atom   60 type  1   force =    -0.00001064    0.00001997   -0.00001966
     atom   61 type  1   force =     0.00135763    0.00084190   -0.00084151
     atom   62 type  1   force =     0.00000132    0.00001724   -0.00001721
     atom   63 type  1   force =    -0.00001734    0.00001700   -0.00002039
     atom   64 type  1   force =     0.00001418    0.00001384   -0.00001251

     Total force =     0.006564     Total SCF correction =     0.000013

     Writing output data file ./results/phonon_fc.save/

     init_run     :     11.57s CPU      4.11s WALL (       1 calls)
     electrons    :    441.45s CPU    105.94s WALL (       1 calls)
     forces       :     17.08s CPU      5.17s WALL (       1 calls)

     Called by init_run:
     wfcinit      :      5.14s CPU      1.97s WALL (       1 calls)
     potinit      :      2.34s CPU      0.70s WALL (       1 calls)
     hinit0       :      0.28s CPU      0.31s WALL (       1 calls)

     Called by electrons:
     c_bands      :    267.04s CPU     60.68s WALL (      16 calls)
     sum_band     :     81.91s CPU     20.58s WALL (      16 calls)
     v_of_rho     :     31.41s CPU      8.57s WALL (      16 calls)
     newd         :     61.11s CPU     16.10s WALL (      16 calls)
     mix_rho      :      0.90s CPU      0.91s WALL (      16 calls)

     Called by c_bands:
     init_us_2    :     13.43s CPU      1.70s WALL (      33 calls)
     regterg      :    254.72s CPU     48.75s WALL (      16 calls)

     Called by *egterg:
     rdiaghg      :     16.11s CPU      1.04s WALL (      77 calls)
     h_psi        :    147.18s CPU     41.73s WALL (      79 calls)
     s_psi        :     28.52s CPU      1.87s WALL (      79 calls)
     g_psi        :      9.74s CPU      0.63s WALL (      62 calls)

     Called by h_psi:
     h_psi:calbec :     37.99s CPU      2.54s WALL (      79 calls)
     vloc_psi     :     79.40s CPU     37.16s WALL (      79 calls)
     add_vuspsi   :     28.11s CPU      1.84s WALL (      79 calls)

     General routines
     calbec       :     48.09s CPU      3.20s WALL (      99 calls)
     fft          :     19.70s CPU      4.09s WALL (     184 calls)
     ffts         :      7.91s CPU      0.50s WALL (      32 calls)
     fftw         :     73.18s CPU     38.18s WALL (    8024 calls)
     interpolate  :      4.78s CPU      0.62s WALL (      16 calls)

     Parallel routines

     PWSCF        :   7m50.18s CPU   1m55.33s WALL


   This run was terminated on:  13:31:32  23Mar2026            

=------------------------------------------------------------------------------=
   JOB DONE.
=------------------------------------------------------------------------------=
