phono3py displacement                   
   1.0000000000000000     
    18.0000000000000000    0.0000000000000000    0.0000000000000000
     0.0000000000000000   18.0000000000000000    0.0000000000000000
     0.0000000000000000    0.0000000000000000   10.8599999999999994
   Si   H 
    18    24
Direct
  0.4244434646227333  0.4244434646227333  0.1258039918387510
  0.4244434646227333  0.4244434646227333  0.6258039918387510
  0.3485671226830291  0.5000000000000000  0.2500000000000000
  0.3485671226830291  0.5000000000000000  0.7500000000000000
  0.4244434646227333  0.5755565353772667  0.3741960081612490
  0.4244434646227333  0.5755565353772667  0.8741960081612490
  0.5000000000000000  0.3485671226830291  0.2500000000000000
  0.5000000000000000  0.3485671226830291  0.7500000000000000
  0.5755565353772667  0.4244434646227333  0.3741960081612490
  0.5755565353772667  0.4244434646227333  0.8741960081612490
  0.5000000000000000  0.5000000000000000  0.0000000000000000
  0.5000000000000000  0.5000000000000000  0.5000000000000000
  0.5755565353772667  0.5755565353772667  0.1258039918387510
  0.5755565353772667  0.5755565353772667  0.6258039918387510
  0.5000000000000000  0.6514328773169709  0.2500000000000000
  0.5000000000000000  0.6514328773169709  0.7500000000000000
  0.6514328773169709  0.5000000000000000  0.2500000000000000
  0.6514328773169709  0.5000000000000000  0.7500000000000000
  0.3767143931520067  0.3767143931520067  0.0444472895199368
  0.3767143931520067  0.3767143931520067  0.5444472895199368
  0.2995045953606095  0.5473067197982289  0.1706696424651284
  0.2995045953606095  0.5473067197982289  0.6706696424651284
  0.2995045953606095  0.4526932802017711  0.3293303575348716
  0.2995045953606095  0.4526932802017711  0.8293303575348716
  0.3767143931520067  0.6232856068480004  0.4555527104800632
  0.3767143931520067  0.6232856068480004  0.9555527104800632
  0.4526932802017711  0.2995045953606095  0.3293303575348716
  0.4526932802017711  0.2995045953606095  0.8293303575348716
  0.5473067197982289  0.2995045953606095  0.1706696424651284
  0.5473067197982289  0.2995045953606095  0.6706696424651284
  0.6232856068480004  0.3767143931520067  0.4555527104800632
  0.6232856068480004  0.3767143931520067  0.9555527104800632
  0.6232856068480004  0.6232856068480004  0.0444472895199368
  0.6232856068480004  0.6232856068480004  0.5444472895199368
  0.5473067197982289  0.7004954046393905  0.3293303575348716
  0.5473067197982289  0.7004954046393905  0.8293303575348716
  0.4526932802017711  0.7004954046393905  0.1706696424651284
  0.4526932802017711  0.7004954046393905  0.6706696424651284
  0.7004954046393905  0.4526932802017711  0.1706696424651284
  0.7004954046393905  0.4526932802017711  0.6706696424651284
  0.7004954046393905  0.5473067197982289  0.3293303575348716
  0.7004954046393905  0.5473067197982289  0.8293303575348716

  0.00000000E+00  0.00000000E+00  0.00000000E+00
  0.00000000E+00  0.00000000E+00  0.00000000E+00
  0.00000000E+00  0.00000000E+00  0.00000000E+00
  0.00000000E+00  0.00000000E+00  0.00000000E+00
  0.00000000E+00  0.00000000E+00  0.00000000E+00
  0.00000000E+00  0.00000000E+00  0.00000000E+00
  0.00000000E+00  0.00000000E+00  0.00000000E+00
  0.00000000E+00  0.00000000E+00  0.00000000E+00
  0.00000000E+00  0.00000000E+00  0.00000000E+00
  0.00000000E+00  0.00000000E+00  0.00000000E+00
  0.00000000E+00  0.00000000E+00  0.00000000E+00
  0.00000000E+00  0.00000000E+00  0.00000000E+00
  0.00000000E+00  0.00000000E+00  0.00000000E+00
  0.00000000E+00  0.00000000E+00  0.00000000E+00
  0.00000000E+00  0.00000000E+00  0.00000000E+00
  0.00000000E+00  0.00000000E+00  0.00000000E+00
  0.00000000E+00  0.00000000E+00  0.00000000E+00
  0.00000000E+00  0.00000000E+00  0.00000000E+00
  0.00000000E+00  0.00000000E+00  0.00000000E+00
  0.00000000E+00  0.00000000E+00  0.00000000E+00
  0.00000000E+00  0.00000000E+00  0.00000000E+00
  0.00000000E+00  0.00000000E+00  0.00000000E+00
  0.00000000E+00  0.00000000E+00  0.00000000E+00
  0.00000000E+00  0.00000000E+00  0.00000000E+00
  0.00000000E+00  0.00000000E+00  0.00000000E+00
  0.00000000E+00  0.00000000E+00  0.00000000E+00
  0.00000000E+00  0.00000000E+00  0.00000000E+00
  0.00000000E+00  0.00000000E+00  0.00000000E+00
  0.00000000E+00  0.00000000E+00  0.00000000E+00
  0.00000000E+00  0.00000000E+00  0.00000000E+00
  0.00000000E+00  0.00000000E+00  0.00000000E+00
  0.00000000E+00  0.00000000E+00  0.00000000E+00
  0.00000000E+00  0.00000000E+00  0.00000000E+00
  0.00000000E+00  0.00000000E+00  0.00000000E+00
  0.00000000E+00  0.00000000E+00  0.00000000E+00
  0.00000000E+00  0.00000000E+00  0.00000000E+00
  0.00000000E+00  0.00000000E+00  0.00000000E+00
  0.00000000E+00  0.00000000E+00  0.00000000E+00
  0.00000000E+00  0.00000000E+00  0.00000000E+00
  0.00000000E+00  0.00000000E+00  0.00000000E+00
  0.00000000E+00  0.00000000E+00  0.00000000E+00
  0.00000000E+00  0.00000000E+00  0.00000000E+00
