  42  42   0   0
  0.8377714E+02  0.1800000E-08  0.1800000E-08  0.1086000E-08  0.5000000E-15
   1.0000000000000000E-004
  CAR 
 unknown system                          
      1.53710705    -15.07280301  301     -5.09993618      1.00000000
    -15.073  0.0000E+00  0.0000E+00
    -15.017  0.0000E+00  0.0000E+00
    -14.962  0.0000E+00  0.0000E+00
    -14.907  0.0000E+00  0.0000E+00
    -14.851  0.0000E+00  0.0000E+00
    -14.796  0.0000E+00  0.0000E+00
    -14.741  0.0000E+00  0.0000E+00
    -14.685  0.0000E+00  0.0000E+00
    -14.630  0.0000E+00  0.0000E+00
    -14.575  0.0000E+00  0.0000E+00
    -14.519  0.0000E+00  0.0000E+00
    -14.464  0.0000E+00  0.0000E+00
    -14.408  0.0000E+00  0.0000E+00
    -14.353  0.2831E-05  0.1567E-06
    -14.298  0.9011E+01  0.4989E+00
    -14.242  0.1800E+02  0.1495E+01
    -14.187  0.8607E-01  0.1500E+01
    -14.132  0.1816E-06  0.1500E+01
    -14.076  0.1782E+02  0.2487E+01
    -14.021  0.2392E+00  0.2500E+01
    -13.965  0.0000E+00  0.2500E+01
    -13.910  0.0000E+00  0.2500E+01
    -13.855  0.6631E-04  0.2500E+01
    -13.799  0.1805E+02  0.3500E+01
    -13.744  0.7391E-02  0.3500E+01
    -13.689  0.0000E+00  0.3500E+01
    -13.633  0.0000E+00  0.3500E+01
    -13.578  0.2342E+00  0.3513E+01
    -13.523  0.8797E+01  0.4000E+01
    -13.467  0.0000E+00  0.4000E+01
    -13.412  0.0000E+00  0.4000E+01
    -13.356  0.0000E+00  0.4000E+01
    -13.301  0.1065E+00  0.4006E+01
    -13.246  0.8924E+01  0.4500E+01
    -13.190  0.0000E+00  0.4500E+01
    -13.135  0.0000E+00  0.4500E+01
    -13.080  0.2844E-06  0.4500E+01
    -13.024  0.2303E+02  0.5775E+01
    -12.969  0.3239E+02  0.7568E+01
    -12.914  0.5296E+02  0.1050E+02
    -12.858  0.4653E+02  0.1308E+02
    -12.803  0.7639E+01  0.1350E+02
    -12.747  0.0000E+00  0.1350E+02
    -12.692  0.0000E+00  0.1350E+02
    -12.637  0.0000E+00  0.1350E+02
    -12.581  0.0000E+00  0.1350E+02
    -12.526  0.0000E+00  0.1350E+02
    -12.471  0.1070E+01  0.1356E+02
    -12.415  0.1699E+02  0.1450E+02
    -12.360  0.0000E+00  0.1450E+02
    -12.304  0.0000E+00  0.1450E+02
    -12.249  0.0000E+00  0.1450E+02
    -12.194  0.0000E+00  0.1450E+02
    -12.138  0.0000E+00  0.1450E+02
    -12.083  0.0000E+00  0.1450E+02
    -12.028  0.0000E+00  0.1450E+02
    -11.972  0.1791E-01  0.1450E+02
    -11.917  0.1804E+02  0.1550E+02
    -11.862  0.1468E+01  0.1558E+02
    -11.806  0.4425E+02  0.1803E+02
    -11.751  0.2653E+02  0.1950E+02
    -11.695  0.0000E+00  0.1950E+02
    -11.640  0.0000E+00  0.1950E+02
    -11.585  0.0000E+00  0.1950E+02
    -11.529  0.0000E+00  0.1950E+02
    -11.474  0.1138E+01  0.1956E+02
    -11.419  0.1692E+02  0.2050E+02
    -11.363  0.0000E+00  0.2050E+02
    -11.308  0.0000E+00  0.2050E+02
    -11.253  0.0000E+00  0.2050E+02
    -11.197  0.0000E+00  0.2050E+02
    -11.142  0.0000E+00  0.2050E+02
    -11.086  0.0000E+00  0.2050E+02
    -11.031  0.1791E+00  0.2051E+02
    -10.976  0.1788E+02  0.2150E+02
    -10.920  0.0000E+00  0.2150E+02
    -10.865  0.0000E+00  0.2150E+02
    -10.810  0.0000E+00  0.2150E+02
    -10.754  0.0000E+00  0.2150E+02
    -10.699  0.2655E+01  0.2165E+02
    -10.643  0.2041E+02  0.2278E+02
    -10.588  0.4846E+02  0.2546E+02
    -10.533  0.7268E+00  0.2550E+02
    -10.477  0.3612E+02  0.2750E+02
    -10.422  0.5776E-05  0.2750E+02
    -10.367  0.3600E+02  0.2949E+02
    -10.311  0.1818E+02  0.3050E+02
    -10.256  0.3004E-07  0.3050E+02
    -10.201  0.1756E+02  0.3147E+02
    -10.145  0.5007E+00  0.3150E+02
    -10.090  0.0000E+00  0.3150E+02
    -10.034  0.0000E+00  0.3150E+02
     -9.979  0.5140E+00  0.3153E+02
     -9.924  0.8517E+01  0.3200E+02
     -9.868  0.0000E+00  0.3200E+02
     -9.813  0.0000E+00  0.3200E+02
     -9.758  0.0000E+00  0.3200E+02
     -9.702  0.0000E+00  0.3200E+02
     -9.647  0.0000E+00  0.3200E+02
     -9.592  0.0000E+00  0.3200E+02
     -9.536  0.7063E+00  0.3204E+02
     -9.481  0.8324E+01  0.3250E+02
     -9.425  0.0000E+00  0.3250E+02
     -9.370  0.0000E+00  0.3250E+02
     -9.315  0.1402E-01  0.3250E+02
     -9.259  0.1805E+02  0.3350E+02
     -9.204  0.0000E+00  0.3350E+02
     -9.149  0.0000E+00  0.3350E+02
     -9.093  0.0000E+00  0.3350E+02
     -9.038  0.0000E+00  0.3350E+02
     -8.983  0.3557E+00  0.3352E+02
     -8.927  0.1771E+02  0.3450E+02
     -8.872  0.0000E+00  0.3450E+02
     -8.816  0.0000E+00  0.3450E+02
     -8.761  0.2658E-01  0.3450E+02
     -8.706  0.1803E+02  0.3550E+02
     -8.650  0.8857E+01  0.3599E+02
     -8.595  0.1741E+00  0.3600E+02
     -8.540  0.0000E+00  0.3600E+02
     -8.484  0.0000E+00  0.3600E+02
     -8.429  0.0000E+00  0.3600E+02
     -8.373  0.2454E+00  0.3601E+02
     -8.318  0.3586E+02  0.3800E+02
     -8.263  0.9046E+01  0.3850E+02
     -8.207  0.1796E+02  0.3949E+02
     -8.152  0.1006E+00  0.3950E+02
     -8.097  0.0000E+00  0.3950E+02
     -8.041  0.0000E+00  0.3950E+02
     -7.986  0.1195E-07  0.3950E+02
     -7.931  0.8759E+01  0.3998E+02
     -7.875  0.9303E+01  0.4050E+02
     -7.820  0.5954E+01  0.4083E+02
     -7.764  0.5725E+02  0.4400E+02
     -7.709  0.4752E+01  0.4426E+02
     -7.654  0.4944E+02  0.4700E+02
     -7.598  0.1455E-01  0.4700E+02
     -7.543  0.5417E+02  0.5000E+02
     -7.488  0.4450E+02  0.5246E+02
     -7.432  0.1871E+02  0.5350E+02
     -7.377  0.1797E+02  0.5449E+02
     -7.322  0.1193E+02  0.5516E+02
     -7.266  0.1525E+02  0.5600E+02
     -7.211  0.3090E+02  0.5771E+02
     -7.155  0.2333E+02  0.5900E+02
     -7.100  0.3608E+02  0.6100E+02
     -7.045  0.9352E+01  0.6152E+02
     -6.989  0.3983E+02  0.6372E+02
     -6.934  0.5003E+01  0.6400E+02
     -6.879  0.1019E+02  0.6456E+02
     -6.823  0.1691E+02  0.6550E+02
     -6.768  0.0000E+00  0.6550E+02
     -6.712  0.0000E+00  0.6550E+02
     -6.657  0.3890E-12  0.6550E+02
     -6.602  0.1101E+02  0.6611E+02
     -6.546  0.7049E+01  0.6650E+02
     -6.491  0.0000E+00  0.6650E+02
     -6.436  0.0000E+00  0.6650E+02
     -6.380  0.0000E+00  0.6650E+02
     -6.325  0.2193E+01  0.6662E+02
     -6.270  0.1587E+02  0.6750E+02
     -6.214  0.3612E+02  0.6950E+02
     -6.159  0.3374E+02  0.7137E+02
     -6.103  0.7674E+02  0.7562E+02
     -6.048  0.3666E+02  0.7765E+02
     -5.993  0.2659E+02  0.7912E+02
     -5.937  0.1591E+02  0.8000E+02
     -5.882  0.0000E+00  0.8000E+02
     -5.827  0.1806E+01  0.8010E+02
     -5.771  0.1973E+02  0.8119E+02
     -5.716  0.5555E+01  0.8150E+02
     -5.661  0.1730E+02  0.8246E+02
     -5.605  0.7622E+00  0.8250E+02
     -5.550  0.1716E+02  0.8345E+02
     -5.494  0.9797E+01  0.8399E+02
     -5.439  0.1350E+00  0.8400E+02
     -5.384  0.0000E+00  0.8400E+02
     -5.328  0.2697E-11  0.8400E+02
     -5.273  0.2951E+02  0.8563E+02
     -5.218  0.1353E+03  0.9312E+02
     -5.162  0.5196E+02  0.9600E+02
     -5.107  0.8016E-02  0.9600E+02
     -5.051  0.0000E+00  0.9600E+02
     -4.996  0.0000E+00  0.9600E+02
     -4.941  0.0000E+00  0.9600E+02
     -4.885  0.0000E+00  0.9600E+02
     -4.830  0.0000E+00  0.9600E+02
     -4.775  0.0000E+00  0.9600E+02
     -4.719  0.0000E+00  0.9600E+02
     -4.664  0.0000E+00  0.9600E+02
     -4.609  0.0000E+00  0.9600E+02
     -4.553  0.0000E+00  0.9600E+02
     -4.498  0.0000E+00  0.9600E+02
     -4.442  0.0000E+00  0.9600E+02
     -4.387  0.0000E+00  0.9600E+02
     -4.332  0.0000E+00  0.9600E+02
     -4.276  0.0000E+00  0.9600E+02
     -4.221  0.0000E+00  0.9600E+02
     -4.166  0.0000E+00  0.9600E+02
     -4.110  0.0000E+00  0.9600E+02
     -4.055  0.0000E+00  0.9600E+02
     -4.000  0.0000E+00  0.9600E+02
     -3.944  0.0000E+00  0.9600E+02
     -3.889  0.0000E+00  0.9600E+02
     -3.833  0.0000E+00  0.9600E+02
     -3.778  0.0000E+00  0.9600E+02
     -3.723  0.0000E+00  0.9600E+02
     -3.667  0.0000E+00  0.9600E+02
     -3.612  0.0000E+00  0.9600E+02
     -3.557  0.0000E+00  0.9600E+02
     -3.501  0.0000E+00  0.9600E+02
     -3.446  0.0000E+00  0.9600E+02
     -3.390  0.0000E+00  0.9600E+02
     -3.335  0.0000E+00  0.9600E+02
     -3.280  0.0000E+00  0.9600E+02
     -3.224  0.0000E+00  0.9600E+02
     -3.169  0.0000E+00  0.9600E+02
     -3.114  0.0000E+00  0.9600E+02
     -3.058  0.0000E+00  0.9600E+02
     -3.003  0.0000E+00  0.9600E+02
     -2.948  0.0000E+00  0.9600E+02
     -2.892  0.0000E+00  0.9600E+02
     -2.837  0.0000E+00  0.9600E+02
     -2.781  0.0000E+00  0.9600E+02
     -2.726  0.0000E+00  0.9600E+02
     -2.671  0.0000E+00  0.9600E+02
     -2.615  0.0000E+00  0.9600E+02
     -2.560  0.0000E+00  0.9600E+02
     -2.505  0.0000E+00  0.9600E+02
     -2.449  0.0000E+00  0.9600E+02
     -2.394  0.0000E+00  0.9600E+02
     -2.339  0.0000E+00  0.9600E+02
     -2.283  0.0000E+00  0.9600E+02
     -2.228  0.0000E+00  0.9600E+02
     -2.172  0.0000E+00  0.9600E+02
     -2.117  0.0000E+00  0.9600E+02
     -2.062  0.0000E+00  0.9600E+02
     -2.006  0.0000E+00  0.9600E+02
     -1.951  0.0000E+00  0.9600E+02
     -1.896  0.0000E+00  0.9600E+02
     -1.840  0.0000E+00  0.9600E+02
     -1.785  0.0000E+00  0.9600E+02
     -1.730  0.0000E+00  0.9600E+02
     -1.674  0.0000E+00  0.9600E+02
     -1.619  0.0000E+00  0.9600E+02
     -1.563  0.0000E+00  0.9600E+02
     -1.508  0.0000E+00  0.9600E+02
     -1.453  0.0000E+00  0.9600E+02
     -1.397  0.0000E+00  0.9600E+02
     -1.342  0.0000E+00  0.9600E+02
     -1.287  0.3167E-04  0.9600E+02
     -1.231  0.9027E+01  0.9650E+02
     -1.176  0.1011E+01  0.9656E+02
     -1.120  0.1705E+02  0.9750E+02
     -1.065  0.1130E-11  0.9750E+02
     -1.010  0.1238E+02  0.9819E+02
     -0.954  0.5498E+02  0.1012E+03
     -0.899  0.1392E+02  0.1020E+03
     -0.844  0.1002E-03  0.1020E+03
     -0.788  0.9671E+02  0.1074E+03
     -0.733  0.2971E+02  0.1090E+03
     -0.678  0.1588E+02  0.1099E+03
     -0.622  0.2194E+01  0.1100E+03
     -0.567  0.1670E-09  0.1100E+03
     -0.511  0.8016E+01  0.1104E+03
     -0.456  0.8481E+01  0.1109E+03
     -0.401  0.4657E+02  0.1135E+03
     -0.345  0.1559E+02  0.1144E+03
     -0.290  0.2024E+02  0.1155E+03
     -0.235  0.4395E+00  0.1155E+03
     -0.179  0.2062E-01  0.1155E+03
     -0.124  0.3604E+02  0.1175E+03
     -0.069  0.1809E+02  0.1185E+03
     -0.013  0.5178E+01  0.1188E+03
      0.042  0.3890E+01  0.1190E+03
      0.098  0.1250E+02  0.1197E+03
      0.153  0.1409E+02  0.1205E+03
      0.208  0.4228E+02  0.1228E+03
      0.264  0.4952E+02  0.1256E+03
      0.319  0.3931E+02  0.1277E+03
      0.374  0.8811E+02  0.1326E+03
      0.430  0.9501E+02  0.1379E+03
      0.485  0.2380E+01  0.1380E+03
      0.541  0.4510E+02  0.1405E+03
      0.596  0.4399E+02  0.1429E+03
      0.651  0.1192E+01  0.1430E+03
      0.707  0.0000E+00  0.1430E+03
      0.762  0.4111E-01  0.1430E+03
      0.817  0.1802E+02  0.1440E+03
      0.873  0.0000E+00  0.1440E+03
      0.928  0.0000E+00  0.1440E+03
      0.983  0.0000E+00  0.1440E+03
      1.039  0.0000E+00  0.1440E+03
      1.094  0.0000E+00  0.1440E+03
      1.150  0.0000E+00  0.1440E+03
      1.205  0.0000E+00  0.1440E+03
      1.260  0.0000E+00  0.1440E+03
      1.316  0.0000E+00  0.1440E+03
      1.371  0.0000E+00  0.1440E+03
      1.426  0.0000E+00  0.1440E+03
      1.482  0.0000E+00  0.1440E+03
      1.537  0.0000E+00  0.1440E+03
