       N       E                     dE             d eps       ncg     rms          rms(c)
DAV:   1     0.471690624066E+03    0.47169E+03   -0.21714E+04   472   0.680E+02
DAV:   2    -0.940690952234E+02   -0.56576E+03   -0.54780E+03   648   0.149E+02
DAV:   3    -0.183152667630E+03   -0.89084E+02   -0.88685E+02   552   0.629E+01
DAV:   4    -0.185974805901E+03   -0.28221E+01   -0.28123E+01   552   0.146E+01
DAV:   5    -0.186071718604E+03   -0.96913E-01   -0.96834E-01   632   0.267E+00    0.220E+01
DAV:   6    -0.180170914242E+03    0.59008E+01   -0.27173E+00   504   0.486E+00    0.130E+01
DAV:   7    -0.177239419660E+03    0.29315E+01   -0.80981E+00   528   0.748E+00    0.179E+00
DAV:   8    -0.177178187792E+03    0.61232E-01   -0.63550E-01   552   0.271E+00    0.945E-01
DAV:   9    -0.177141225066E+03    0.36963E-01   -0.10279E-01   576   0.817E-01    0.588E-01
DAV:  10    -0.177137238933E+03    0.39861E-02   -0.12292E-02   552   0.348E-01    0.210E-01
DAV:  11    -0.177127199762E+03    0.10039E-01   -0.13153E-02   568   0.273E-01    0.136E-01
DAV:  12    -0.177132308406E+03   -0.51086E-02   -0.20495E-03   536   0.132E-01    0.839E-02
DAV:  13    -0.177135196799E+03   -0.28884E-02   -0.33881E-03   512   0.134E-01    0.705E-02
DAV:  14    -0.177138734247E+03   -0.35374E-02   -0.38418E-04   560   0.580E-02    0.318E-02
DAV:  15    -0.177143034216E+03   -0.43000E-02   -0.39706E-04   480   0.505E-02    0.196E-02
DAV:  16    -0.177144999252E+03   -0.19650E-02   -0.13774E-04   528   0.295E-02    0.150E-02
DAV:  17    -0.177146584061E+03   -0.15848E-02   -0.17620E-04   520   0.255E-02    0.135E-02
DAV:  18    -0.177146819780E+03   -0.23572E-03   -0.18012E-05   568   0.111E-02    0.253E-03
DAV:  19    -0.177147006886E+03   -0.18711E-03   -0.15905E-05   512   0.848E-03    0.442E-03
DAV:  20    -0.177147047588E+03   -0.40701E-04   -0.23153E-06   544   0.386E-03    0.186E-03
DAV:  21    -0.177147057306E+03   -0.97181E-05   -0.52723E-07   552   0.195E-03    0.674E-04
DAV:  22    -0.177147079704E+03   -0.22398E-04   -0.10614E-06   480   0.189E-03    0.111E-03
DAV:  23    -0.177147081749E+03   -0.20451E-05   -0.50369E-08   408   0.629E-04    0.649E-04
DAV:  24    -0.177147085136E+03   -0.33873E-05   -0.78005E-08   376   0.887E-04    0.428E-04
DAV:  25    -0.177147085494E+03   -0.35798E-06   -0.20606E-08   408   0.452E-04    0.260E-04
DAV:  26    -0.177147086144E+03   -0.64915E-06   -0.59124E-09   336   0.298E-04    0.732E-05
DAV:  27    -0.177147086444E+03   -0.30067E-06   -0.62277E-09   336   0.224E-04    0.698E-05
DAV:  28    -0.177147086479E+03   -0.34863E-07   -0.11221E-09   384   0.128E-04
   1 F= -.17714709E+03 E0= -.17714709E+03  d E =-.306247E-34
