phono3py displacement
1.0
     18.00000000000000      0.00000000000000      0.00000000000000
      0.00000000000000     18.00000000000000      0.00000000000000
      0.00000000000000      0.00000000000000     10.86000000000000
  Si  H
  18  24
Direct
      0.42444346462273      0.42444346462273      0.12580399183875
      0.42444346462273      0.42444346462273      0.62580399183875
      0.34856712268303      0.50000000000000      0.25000000000000
      0.34856712268303      0.50000000000000      0.75000000000000
      0.42444346462273      0.57555653537727      0.37419600816125
      0.42444346462273      0.57555653537727      0.87419600816125
      0.50000000000000      0.34856712268303      0.25000000000000
      0.50000000000000      0.34856712268303      0.75000000000000
      0.57555653537727      0.42444346462273      0.37419600816125
      0.57555653537727      0.42444346462273      0.87419600816125
      0.50000000000000      0.50000000000000      0.00000000000000
      0.50000000000000      0.50000000000000      0.50000000000000
      0.57555653537727      0.57555653537727      0.12580399183875
      0.57555653537727      0.57555653537727      0.62580399183875
      0.50000000000000      0.65143287731697      0.25000000000000
      0.50000000000000      0.65143287731697      0.75000000000000
      0.65143287731697      0.50000000000000      0.25000000000000
      0.65143287731697      0.50000000000000      0.75000000000000
      0.37671439315201      0.37671439315201      0.04444728951994
      0.37671439315201      0.37671439315201      0.54444728951994
      0.29950459536061      0.54730671979823      0.17066964246513
      0.29950459536061      0.54730671979823      0.67066964246513
      0.29950459536061      0.45269328020177      0.32933035753487
      0.29950459536061      0.45269328020177      0.82933035753487
      0.37671439315201      0.62328560684800      0.45555271048006
      0.37671439315201      0.62328560684800      0.95555271048006
      0.45269328020177      0.29950459536061      0.32933035753487
      0.45269328020177      0.29950459536061      0.82933035753487
      0.54730671979823      0.29950459536061      0.17066964246513
      0.54730671979823      0.29950459536061      0.67066964246513
      0.62328560684800      0.37671439315201      0.45555271048006
      0.62328560684800      0.37671439315201      0.95555271048006
      0.62328560684800      0.62328560684800      0.04444728951994
      0.62328560684800      0.62328560684800      0.54444728951994
      0.54730671979823      0.70049540463939      0.32933035753487
      0.54730671979823      0.70049540463939      0.82933035753487
      0.45269328020177      0.70049540463939      0.17066964246513
      0.45269328020177      0.70049540463939      0.67066964246513
      0.70049540463939      0.45269328020177      0.17066964246513
      0.70049540463939      0.45269328020177      0.67066964246513
      0.70049540463939      0.54730671979823      0.32933035753487
      0.70049540463939      0.54730671979823      0.82933035753487
