unknown system                          
           1
    18.000000    0.000000    0.000000
     0.000000   18.000000    0.000000
     0.000000    0.000000   10.860000
   Si   H 
    18    24
Direct configuration=     1
   0.42444346  0.42444346  0.12580399
   0.42444346  0.42444346  0.62580399
   0.34856712  0.50000000  0.25000000
   0.34856712  0.50000000  0.75000000
   0.42444346  0.57555654  0.37419601
   0.42444346  0.57555654  0.87419601
   0.50000000  0.34856712  0.25000000
   0.50000000  0.34856712  0.75000000
   0.57555654  0.42444346  0.37419601
   0.57555654  0.42444346  0.87419601
   0.50000000  0.50000000  0.00000000
   0.50000000  0.50000000  0.50000000
   0.57555654  0.57555654  0.12580399
   0.57555654  0.57555654  0.62580399
   0.50000000  0.65143288  0.25000000
   0.50000000  0.65143288  0.75000000
   0.65143288  0.50000000  0.25000000
   0.65143288  0.50000000  0.75000000
   0.37671439  0.37671439  0.04444729
   0.37671439  0.37671439  0.54444729
   0.29950460  0.54730672  0.17066964
   0.29950460  0.54730672  0.67066964
   0.29950460  0.45269328  0.32933036
   0.29950460  0.45269328  0.82933036
   0.37671439  0.62328561  0.45555271
   0.37671439  0.62328561  0.95555271
   0.45269328  0.29950460  0.32933036
   0.45269328  0.29950460  0.82933036
   0.54730672  0.29950460  0.17066964
   0.54730672  0.29950460  0.67066964
   0.62328561  0.37671439  0.45555271
   0.62328561  0.37671439  0.95555271
   0.62328561  0.62328561  0.04444729
   0.62328561  0.62328561  0.54444729
   0.54730672  0.70049540  0.32933036
   0.54730672  0.70049540  0.82933036
   0.45269328  0.70049540  0.17066964
   0.45269328  0.70049540  0.67066964
   0.70049540  0.45269328  0.17066964
   0.70049540  0.45269328  0.67066964
   0.70049540  0.54730672  0.32933036
   0.70049540  0.54730672  0.82933036
