relaxation                              
   1.0000000000000000     
    18.0000000000000000    0.0000000000000000    0.0000000000000000
     0.0000000000000000   18.0000000000000000    0.0000000000000000
     0.0000000000000000    0.0000000000000000    5.4299999999999997
   Si   H 
     9    12
Direct
  0.4244434646227344  0.4244434646227344  0.2516079836775058
  0.3485671226830269  0.5000000000000000  0.5000000000000000
  0.4244434646227344  0.5755565353772656  0.7483920163224939
  0.5000000000000000  0.3485671226830269  0.5000000000000000
  0.5755565353772656  0.4244434646227344  0.7483920163224939
  0.5000000000000000  0.5000000000000000 -0.0000000000000000
  0.5755565353772656  0.5755565353772656  0.2516079836775058
  0.5000000000000000  0.6514328773169732  0.5000000000000000
  0.6514328773169732  0.5000000000000000  0.5000000000000000
  0.3767143931520051  0.3767143931520051  0.0888945790398751
  0.2995045953606059  0.5473067197982311  0.3413392849302669
  0.2995045953606059  0.4526932802017690  0.6586607150697328
  0.3767143931520051  0.6232856068479951  0.9111054209601250
  0.4526932802017690  0.2995045953606059  0.6586607150697328
  0.5473067197982311  0.2995045953606059  0.3413392849302669
  0.6232856068479951  0.3767143931520051  0.9111054209601250
  0.6232856068479951  0.6232856068479951  0.0888945790398751
  0.5473067197982311  0.7004954046393943  0.6586607150697328
  0.4526932802017690  0.7004954046393943  0.3413392849302669
  0.7004954046393943  0.4526932802017690  0.3413392849302669
  0.7004954046393943  0.5473067197982311  0.6586607150697328

  0.00000000E+00  0.00000000E+00  0.00000000E+00
  0.00000000E+00  0.00000000E+00  0.00000000E+00
  0.00000000E+00  0.00000000E+00  0.00000000E+00
  0.00000000E+00  0.00000000E+00  0.00000000E+00
  0.00000000E+00  0.00000000E+00  0.00000000E+00
  0.00000000E+00  0.00000000E+00  0.00000000E+00
  0.00000000E+00  0.00000000E+00  0.00000000E+00
  0.00000000E+00  0.00000000E+00  0.00000000E+00
  0.00000000E+00  0.00000000E+00  0.00000000E+00
  0.00000000E+00  0.00000000E+00  0.00000000E+00
  0.00000000E+00  0.00000000E+00  0.00000000E+00
  0.00000000E+00  0.00000000E+00  0.00000000E+00
  0.00000000E+00  0.00000000E+00  0.00000000E+00
  0.00000000E+00  0.00000000E+00  0.00000000E+00
  0.00000000E+00  0.00000000E+00  0.00000000E+00
  0.00000000E+00  0.00000000E+00  0.00000000E+00
  0.00000000E+00  0.00000000E+00  0.00000000E+00
  0.00000000E+00  0.00000000E+00  0.00000000E+00
  0.00000000E+00  0.00000000E+00  0.00000000E+00
  0.00000000E+00  0.00000000E+00  0.00000000E+00
  0.00000000E+00  0.00000000E+00  0.00000000E+00
