
     Program PWSCF v.6.7MaX starts on 25Mar2026 at 20:28:46 

     This program is part of the open-source Quantum ESPRESSO suite
     for quantum simulation of materials; please cite
         "P. Giannozzi et al., J. Phys.:Condens. Matter 21 395502 (2009);
         "P. Giannozzi et al., J. Phys.:Condens. Matter 29 465901 (2017);
          URL http://www.quantum-espresso.org", 
     in publications or presentations arising from this work. More details at
     http://www.quantum-espresso.org/quote

     Parallel version (MPI), running on     1 processors

     MPI processes distributed on     1 nodes
     Reading input from /home/paul/Documents/ETH/master/quatrex/phonon/input_calc/fc3_si/DISP.supercell_template.in.60

     Current dimensions of program PWSCF are:
     Max number of different atomic species (ntypx) = 10
     Max number of k-points (npk) =  40000
     Max angular momentum in pseudopotentials (lmaxx) =  3

     Subspace diagonalization in iterative solution of the eigenvalue problem:
     a serial algorithm will be used


     G-vector sticks info
     --------------------
     sticks:   dense  smooth     PW     G-vecs:    dense   smooth      PW
     Sum        4117    2065    583               175263    62079    9257



     bravais-lattice index     =            0
     lattice parameter (alat)  =      14.4362  a.u.
     unit-cell volume          =    2127.3654 (a.u.)^3
     number of atoms/cell      =           16
     number of atomic types    =            1
     number of electrons       =        64.00
     number of Kohn-Sham states=           38
     kinetic-energy cutoff     =      36.0000  Ry
     charge density cutoff     =     288.0000  Ry
     scf convergence threshold =      1.0E-10
     mixing beta               =       0.7000
     number of iterations used =            8  plain     mixing
     Exchange-correlation= PBE
                           (   1   4   3   4   0   0   0)

     celldm(1)=  14.436183  celldm(2)=   0.000000  celldm(3)=   0.000000
     celldm(4)=   0.000000  celldm(5)=   0.000000  celldm(6)=   0.000000

     crystal axes: (cart. coord. in units of alat)
               a(1) = (   0.000000   0.707107   0.707107 )  
               a(2) = (   0.707107   0.000000   0.707107 )  
               a(3) = (   0.707107   0.707107   0.000000 )  

     reciprocal axes: (cart. coord. in units 2 pi/alat)
               b(1) = ( -0.707107  0.707107  0.707107 )  
               b(2) = (  0.707107 -0.707107  0.707107 )  
               b(3) = (  0.707107  0.707107 -0.707107 )  


     PseudoPot. # 1 for Si read from file:
     ../scf_disp/pseudo/Si.pbe-n-rrkjus_psl.1.0.0.UPF
     MD5 check sum: fa25574f73a70a4139f2adfbefec430c
     Pseudo is Ultrasoft + core correction, Zval =  4.0
     Generated using &quot;atomic&quot; code by A. Dal Corso  v.6.3
     Using radial grid of 1141 points,  6 beta functions with: 
                l(1) =   0
                l(2) =   0
                l(3) =   1
                l(4) =   1
                l(5) =   2
                l(6) =   2
     Q(r) pseudized with 0 coefficients 


     atomic species   valence    mass     pseudopotential
        Si             4.00    28.08500     Si( 1.00)

     No symmetry found



   Cartesian axes

     site n.     atom                  positions (alat units)
         1           Si  tau(   1) = (   0.0000000   0.0013090   0.0000000  )
         2           Si  tau(   2) = (   0.1754677   0.1767767   0.1767767  )
         3           Si  tau(   3) = (   0.0000000   0.3535534   0.3535534  )
         4           Si  tau(   4) = (   0.1767767   0.5303301   0.5303301  )
         5           Si  tau(   5) = (   0.3535534   0.0000000   0.3535534  )
         6           Si  tau(   6) = (   0.5303301   0.1767767   0.5303301  )
         7           Si  tau(   7) = (   0.3535534   0.3535534   0.7071068  )
         8           Si  tau(   8) = (   0.5303301   0.5303301   0.8838835  )
         9           Si  tau(   9) = (   0.3535534   0.3535534   0.0000000  )
        10           Si  tau(  10) = (   0.5303301   0.5303301   0.1767767  )
        11           Si  tau(  11) = (   0.3535534   0.7071068   0.3535534  )
        12           Si  tau(  12) = (   0.5303301   0.8838835   0.5303301  )
        13           Si  tau(  13) = (   0.7071068   0.3535534   0.3535534  )
        14           Si  tau(  14) = (   0.8838835   0.5303301   0.5303301  )
        15           Si  tau(  15) = (   0.7071068   0.7071068   0.7071068  )
        16           Si  tau(  16) = (   0.8838835   0.8838835   0.8838835  )

     number of k points=    36  Gaussian smearing, width (Ry)=  0.0100
                       cart. coord. in units 2pi/alat
        k(    1) = (   0.0000000   0.0000000   0.0000000), wk =   0.0312500
        k(    2) = (   0.1767767   0.1767767  -0.1767767), wk =   0.0625000
        k(    3) = (  -0.3535534  -0.3535534   0.3535534), wk =   0.0312500
        k(    4) = (   0.3535534   0.0000000   0.0000000), wk =   0.0625000
        k(    5) = (  -0.1767767  -0.5303301   0.5303301), wk =   0.0625000
        k(    6) = (   0.0000000  -0.3535534   0.3535534), wk =   0.0625000
        k(    7) = (  -0.7071068   0.0000000   0.0000000), wk =   0.0312500
        k(    8) = (  -0.7071068   0.3535534   0.0000000), wk =   0.0625000
        k(    9) = (  -0.1767767  -0.1767767  -0.1767767), wk =   0.0625000
        k(   10) = (  -0.1767767   0.1767767   0.1767767), wk =   0.0625000
        k(   11) = (   0.1767767  -0.1767767   0.1767767), wk =   0.0625000
        k(   12) = (   0.3535534   0.3535534   0.3535534), wk =   0.0312500
        k(   13) = (   0.3535534  -0.3535534  -0.3535534), wk =   0.0312500
        k(   14) = (  -0.3535534   0.3535534  -0.3535534), wk =   0.0312500
        k(   15) = (   0.0000000   0.3535534   0.0000000), wk =   0.0625000
        k(   16) = (   0.0000000   0.0000000   0.3535534), wk =   0.0625000
        k(   17) = (   0.1767767   0.5303301   0.5303301), wk =   0.0625000
        k(   18) = (   0.1767767  -0.5303301  -0.5303301), wk =   0.0625000
        k(   19) = (  -0.1767767   0.5303301  -0.5303301), wk =   0.0625000
        k(   20) = (  -0.5303301  -0.1767767  -0.5303301), wk =   0.0625000
        k(   21) = (   0.5303301   0.1767767  -0.5303301), wk =   0.0625000
        k(   22) = (  -0.5303301   0.1767767   0.5303301), wk =   0.0625000
        k(   23) = (   0.5303301  -0.1767767   0.5303301), wk =   0.0625000
        k(   24) = (   0.5303301   0.5303301  -0.1767767), wk =   0.0625000
        k(   25) = (  -0.5303301   0.5303301   0.1767767), wk =   0.0625000
        k(   26) = (   0.5303301  -0.5303301   0.1767767), wk =   0.0625000
        k(   27) = (  -0.5303301  -0.5303301  -0.1767767), wk =   0.0625000
        k(   28) = (   0.0000000   0.3535534   0.3535534), wk =   0.0625000
        k(   29) = (  -0.3535534   0.0000000  -0.3535534), wk =   0.0625000
        k(   30) = (   0.3535534   0.0000000  -0.3535534), wk =   0.0625000
        k(   31) = (   0.3535534   0.3535534   0.0000000), wk =   0.0625000
        k(   32) = (  -0.3535534   0.3535534   0.0000000), wk =   0.0625000
        k(   33) = (   0.0000000  -0.7071068   0.0000000), wk =   0.0312500
        k(   34) = (   0.0000000   0.0000000  -0.7071068), wk =   0.0312500
        k(   35) = (   0.3535534  -0.7071068   0.0000000), wk =   0.0625000
        k(   36) = (   0.7071068   0.0000000   0.3535534), wk =   0.0625000

     Dense  grid:   175263 G-vectors     FFT dimensions: (  80,  80,  80)

     Smooth grid:    62079 G-vectors     FFT dimensions: (  60,  60,  60)

     Estimated max dynamical RAM per process >     930.95 MB

     Initial potential from superposition of free atoms

     starting charge   63.99105, renormalised to   64.00000
     Starting wfcs are   64 randomized atomic wfcs

     total cpu time spent up to now is        8.1 secs

     Self-consistent Calculation

     iteration #  1     ecut=    36.00 Ry     beta= 0.70
     Davidson diagonalization with overlap
     ethr =  1.00E-02,  avg # of iterations =  3.1

     Threshold (ethr) on eigenvalues was too large:
     Diagonalizing with lowered threshold

     Davidson diagonalization with overlap
     ethr =  6.41E-04,  avg # of iterations =  2.5

     total cpu time spent up to now is       48.1 secs

     total energy              =    -182.68671230 Ry
     estimated scf accuracy    <       0.44679764 Ry

     iteration #  2     ecut=    36.00 Ry     beta= 0.70
     Davidson diagonalization with overlap
     ethr =  6.98E-04,  avg # of iterations =  1.0

     total cpu time spent up to now is       64.1 secs

     total energy              =    -182.70357248 Ry
     estimated scf accuracy    <       0.02122965 Ry

     iteration #  3     ecut=    36.00 Ry     beta= 0.70
     Davidson diagonalization with overlap
     c_bands:  2 eigenvalues not converged
     c_bands:  2 eigenvalues not converged
     c_bands:  3 eigenvalues not converged
     c_bands:  2 eigenvalues not converged
     c_bands:  1 eigenvalues not converged
     c_bands:  1 eigenvalues not converged
     c_bands:  1 eigenvalues not converged
     c_bands:  1 eigenvalues not converged
     c_bands:  1 eigenvalues not converged
     c_bands:  1 eigenvalues not converged
     c_bands:  1 eigenvalues not converged
     c_bands:  2 eigenvalues not converged
     ethr =  3.32E-05,  avg # of iterations = 13.2

     total cpu time spent up to now is       94.0 secs

     total energy              =    -182.70832427 Ry
     estimated scf accuracy    <       0.00066753 Ry

     iteration #  4     ecut=    36.00 Ry     beta= 0.70
     Davidson diagonalization with overlap
     c_bands:  1 eigenvalues not converged
     c_bands:  1 eigenvalues not converged
     ethr =  1.04E-06,  avg # of iterations = 10.3

     total cpu time spent up to now is      121.2 secs

     total energy              =    -182.70861616 Ry
     estimated scf accuracy    <       0.00007866 Ry

     iteration #  5     ecut=    36.00 Ry     beta= 0.70
     Davidson diagonalization with overlap
     c_bands:  1 eigenvalues not converged
     ethr =  1.23E-07,  avg # of iterations =  4.2

     total cpu time spent up to now is      143.0 secs

     total energy              =    -182.70863861 Ry
     estimated scf accuracy    <       0.00000686 Ry

     iteration #  6     ecut=    36.00 Ry     beta= 0.70
     Davidson diagonalization with overlap
     ethr =  1.07E-08,  avg # of iterations =  4.0

     total cpu time spent up to now is      166.1 secs

     total energy              =    -182.70864085 Ry
     estimated scf accuracy    <       0.00000094 Ry

     iteration #  7     ecut=    36.00 Ry     beta= 0.70
     Davidson diagonalization with overlap
     ethr =  1.46E-09,  avg # of iterations =  4.3

     total cpu time spent up to now is      186.9 secs

     total energy              =    -182.70864098 Ry
     estimated scf accuracy    <       0.00000015 Ry

     iteration #  8     ecut=    36.00 Ry     beta= 0.70
     Davidson diagonalization with overlap
     ethr =  2.33E-10,  avg # of iterations =  3.6

     total cpu time spent up to now is      208.3 secs

     total energy              =    -182.70864102 Ry
     estimated scf accuracy    <          6.5E-09 Ry

     iteration #  9     ecut=    36.00 Ry     beta= 0.70
     Davidson diagonalization with overlap
     c_bands:  1 eigenvalues not converged
     c_bands:  1 eigenvalues not converged
     c_bands:  1 eigenvalues not converged
     ethr =  1.01E-11,  avg # of iterations =  6.5

     total cpu time spent up to now is      234.2 secs

     total energy              =    -182.70864102 Ry
     estimated scf accuracy    <          1.8E-09 Ry

     iteration # 10     ecut=    36.00 Ry     beta= 0.70
     Davidson diagonalization with overlap
     ethr =  2.82E-12,  avg # of iterations =  2.6

     total cpu time spent up to now is      254.3 secs

     End of self-consistent calculation

          k = 0.0000 0.0000 0.0000 (  7799 PWs)   bands (ev):

    -5.7007  -3.3357  -3.3327  -3.3255  -3.3227  -1.5129  -1.5052  -1.4987
    -1.4947  -1.4946  -1.4862  -0.6825  -0.6766  -0.6738  -0.6677   3.4698
     3.4750   3.4761   3.4767   3.4784   3.4803   5.1421   5.1528   5.1550
     5.1583   5.1600   5.1604   5.1683   5.1699   6.3639   6.3725   6.3812
     7.0446   7.0456   7.0515   7.0559   7.0586   7.0588

          k = 0.1768 0.1768-0.1768 (  7757 PWs)   bands (ev):

    -5.4939  -3.9828  -3.2464  -3.2436  -3.2359  -2.3667  -2.3644  -2.3544
    -0.5057  -0.5012  -0.4908  -0.4519  -0.4465  -0.4430   0.3708   2.8773
     2.8796   2.8841   3.6427   3.6473   3.6492   4.0670   4.0701   4.0763
     4.7701   4.7792   4.7858   4.7893   5.2664   5.2729   6.0718   6.0789
     7.2349   7.2388   7.2436   8.0917   8.3252   8.3325

          k =-0.3536-0.3536 0.3536 (  7744 PWs)   bands (ev):

    -4.8942  -4.8862  -2.9507  -2.9494  -2.9395  -2.9390  -2.9389  -2.9280
    -0.0749  -0.0604  -0.0588  -0.0550  -0.0524  -0.0509   2.4167   2.4184
     2.7831   2.7844   2.7859   2.7871   2.7917   2.7983   4.1177   4.1286
     4.1312   4.1359   4.1360   4.1367   5.5876   5.6010   5.6043   5.6048
     7.8618   7.8710   7.8790   7.8796   7.8796   7.8800

          k = 0.3536 0.0000 0.0000 (  7715 PWs)   bands (ev):

    -5.4241  -3.5000  -3.4964  -3.4896  -3.4863  -3.2731  -1.4262  -1.4174
    -1.4134  -1.4125  -0.0753  -0.0689  -0.0663  -0.0599   0.6018   2.8937
     2.8961   2.8979   2.9003   3.7225   3.7270   3.8739   3.8787   3.8818
     3.8867   5.0512   5.0806   5.0875   5.0916   5.0982   5.5463   5.5541
     6.9627   7.8867   8.3272   8.3339   8.3347   8.3823

          k =-0.1768-0.5303 0.5303 (  7760 PWs)   bands (ev):

    -4.9492  -4.4333  -3.8837  -3.4526  -3.4457  -2.7328  -2.1821  -2.1752
    -0.6081  -0.6021  -0.3197   0.4821   0.4891   1.4101   1.7172   2.2434
     2.2459   2.3196   3.0011   3.0064   3.1372   3.3575   3.3611   3.6642
     4.0273   4.1261   4.4088   4.4187   4.4541   5.0280   5.1164   5.5850
     7.7072   8.2062   8.5228   8.7529   8.7593   9.1380

          k = 0.0000-0.3536 0.3536 (  7746 PWs)   bands (ev):

    -5.1532  -4.1262  -4.1176  -3.0734  -3.0666  -2.7859  -2.7788  -1.9145
    -0.8989  -0.4822  -0.4750   0.3741   0.3805   1.0409   1.0488   1.9952
     2.8755   2.8825   2.9526   2.9561   3.5636   3.5713   3.6851   3.9072
     4.1726   4.1771   4.5186   4.5245   4.7130   4.7526   4.7628   6.0720
     7.5522   8.3111   8.3168   8.6282   8.6357   9.0100

          k =-0.7071 0.0000 0.0000 (  7768 PWs)   bands (ev):

    -4.6086  -4.5997  -3.6339  -3.6300  -3.6237  -3.6198  -1.3364  -1.3275
    -1.3232  -1.3228   0.8528   0.8599   0.8609   0.8681   2.4466   2.4497
     2.4513   2.4527   2.5536   2.5547   2.5586   2.5599   2.8549   2.8578
     4.4429   4.4484   4.4536   4.4589   5.0165   5.0228   5.0276   5.0341
     7.4860   7.4902   8.8250   8.8315   8.8335   8.8398

          k =-0.7071 0.3536 0.0000 (  7788 PWs)   bands (ev):

    -4.3615  -4.3528  -4.3505  -4.3464  -2.5462  -2.5361  -2.5316  -2.5282
    -0.2435  -0.2392  -0.2331  -0.2269   2.0541   2.0614   2.0672   2.0694
     2.0713   2.0736   2.0763   2.0784   3.6060   3.6130   3.6148   3.6185
     3.7386   3.7413   3.7472   3.7498   4.9161   4.9225   4.9249   4.9329
     8.8172   8.8241   8.8283   8.8306   9.2409   9.2491

          k =-0.1768-0.1768-0.1768 (  7757 PWs)   bands (ev):

    -5.4938  -3.9802  -3.2499  -3.2421  -3.2392  -2.3701  -2.3602  -2.3579
    -0.5050  -0.4941  -0.4918  -0.4471  -0.4446  -0.4364   0.3616   2.8708
     2.8770   2.8781   3.6481   3.6486   3.6519   4.0553   4.0662   4.0675
     4.7614   4.7878   4.7889   4.7939   5.2696   5.2760   6.0779   6.0851
     7.2393   7.2446   7.2462   8.0950   8.3230   8.3253

          k =-0.1768 0.1768 0.1768 (  7757 PWs)   bands (ev):

    -5.4938  -3.9815  -3.2488  -3.2428  -3.2370  -2.3688  -2.3623  -2.3558
    -0.5060  -0.4978  -0.4911  -0.4511  -0.4453  -0.4378   0.3662   2.8740
     2.8777   2.8818   3.6443   3.6488   3.6508   4.0610   4.0675   4.0726
     4.7652   4.7829   4.7886   4.7914   5.2657   5.2768   6.0722   6.0847
     7.2364   7.2419   7.2454   8.0934   8.3241   8.3313

          k = 0.1768-0.1768 0.1768 (  7757 PWs)   bands (ev):

    -5.4938  -3.9815  -3.2488  -3.2428  -3.2370  -2.3688  -2.3623  -2.3558
    -0.5060  -0.4978  -0.4911  -0.4511  -0.4453  -0.4378   0.3662   2.8740
     2.8777   2.8818   3.6443   3.6488   3.6508   4.0610   4.0675   4.0726
     4.7652   4.7829   4.7886   4.7914   5.2657   5.2768   6.0722   6.0847
     7.2364   7.2419   7.2454   8.0934   8.3230   8.3291

          k = 0.3536 0.3536 0.3536 (  7744 PWs)   bands (ev):

    -4.8924  -4.8865  -2.9598  -2.9429  -2.9414  -2.9392  -2.9368  -2.9340
    -0.0674  -0.0562  -0.0560  -0.0536  -0.0493  -0.0391   2.4052   2.4129
     2.7643   2.7801   2.7804   2.7844   2.7858   2.7865   4.1297   4.1321
     4.1335   4.1338   4.1391   4.1422   5.5962   5.5969   5.6092   5.6118
     7.8719   7.8744   7.8797   7.8840   7.8843   7.8849

          k = 0.3536-0.3536-0.3536 (  7744 PWs)   bands (ev):

    -4.8928  -4.8869  -2.9561  -2.9463  -2.9400  -2.9394  -2.9372  -2.9308
    -0.0726  -0.0612  -0.0552  -0.0533  -0.0519  -0.0428   2.4095   2.4171
     2.7740   2.7825   2.7837   2.7859   2.7869   2.7930   4.1242   4.1319
     4.1321   4.1340   4.1354   4.1407   5.5896   5.6009   5.6019   5.6135
     7.8672   7.8763   7.8774   7.8777   7.8809   7.8856

          k =-0.3536 0.3536-0.3536 (  7744 PWs)   bands (ev):

    -4.8928  -4.8869  -2.9561  -2.9463  -2.9400  -2.9394  -2.9372  -2.9308
    -0.0726  -0.0612  -0.0552  -0.0533  -0.0519  -0.0428   2.4095   2.4171
     2.7740   2.7825   2.7837   2.7859   2.7869   2.7930   4.1242   4.1319
     4.1321   4.1340   4.1354   4.1407   5.5896   5.6009   5.6019   5.6135
     7.8672   7.8763   7.8774   7.8777   7.8809   7.8856

          k = 0.0000 0.3536 0.0000 (  7715 PWs)   bands (ev):

    -5.4241  -3.5000  -3.4964  -3.4896  -3.4863  -3.2731  -1.4262  -1.4174
    -1.4134  -1.4125  -0.0753  -0.0689  -0.0663  -0.0599   0.6018   2.8937
     2.8961   2.8979   2.9003   3.7225   3.7270   3.8739   3.8787   3.8818
     3.8867   5.0512   5.0806   5.0875   5.0916   5.0982   5.5463   5.5541
     6.9627   7.8867   8.3279   8.3332   8.3382   8.3830

          k = 0.0000 0.0000 0.3536 (  7715 PWs)   bands (ev):

    -5.4241  -3.5045  -3.4912  -3.4892  -3.4873  -3.2732  -1.4284  -1.4190
    -1.4158  -1.4063  -0.0786  -0.0682  -0.0633  -0.0604   0.6017   2.8913
     2.8952   2.8987   2.9026   3.7247   3.7249   3.8698   3.8800   3.8835
     3.8877   5.0498   5.0830   5.0904   5.0922   5.0941   5.5501   5.5503
     6.9627   7.8867   8.3279   8.3315   8.3394   8.3829

          k = 0.1768 0.5303 0.5303 (  7760 PWs)   bands (ev):

    -4.9488  -4.4321  -3.8841  -3.4545  -3.4477  -2.7309  -2.1839  -2.1770
    -0.6040  -0.5982  -0.3227   0.4894   0.4965   1.4136   1.7076   2.2373
     2.2412   2.3152   2.9993   3.0037   3.1298   3.3603   3.3644   3.6547
     4.0294   4.1316   4.4056   4.4132   4.4603   5.0341   5.1185   5.5931
     7.7119   8.2129   8.5250   8.7565   8.7626   9.1424

          k = 0.1768-0.5303-0.5303 (  7760 PWs)   bands (ev):

    -4.9491  -4.4325  -3.8835  -3.4544  -3.4476  -2.7291  -2.1837  -2.1768
    -0.6048  -0.5988  -0.3271   0.4888   0.4959   1.4093   1.7109   2.2400
     2.2425   2.3180   3.0014   3.0067   3.1351   3.3592   3.3630   3.6595
     4.0262   4.1313   4.4023   4.4122   4.4599   5.0346   5.1117   5.5940
     7.7113   8.2127   8.5249   8.7530   8.7593   9.1415

          k =-0.1768 0.5303-0.5303 (  7760 PWs)   bands (ev):

    -4.9489  -4.4330  -3.8842  -3.4526  -3.4458  -2.7345  -2.1823  -2.1754
    -0.6073  -0.6014  -0.3152   0.4826   0.4897   1.4144   1.7139   2.2409
     2.2446   2.3166   2.9991   3.0035   3.1318   3.3585   3.3626   3.6594
     4.0305   4.1265   4.4119   4.4197   4.4543   5.0276   5.1233   5.5841
     7.7078   8.2064   8.5229   8.7565   8.7625   9.1390

          k =-0.5303-0.1768-0.5303 (  7760 PWs)   bands (ev):

    -4.9488  -4.4321  -3.8841  -3.4545  -3.4477  -2.7309  -2.1839  -2.1770
    -0.6040  -0.5982  -0.3227   0.4894   0.4965   1.4136   1.7076   2.2373
     2.2412   2.3152   2.9993   3.0037   3.1298   3.3603   3.3644   3.6547
     4.0294   4.1316   4.4056   4.4132   4.4603   5.0341   5.1185   5.5931
     7.7119   8.2129   8.5250   8.7565   8.7626   9.1424

          k = 0.5303 0.1768-0.5303 (  7760 PWs)   bands (ev):

    -4.9492  -4.4333  -3.8837  -3.4526  -3.4457  -2.7328  -2.1821  -2.1752
    -0.6081  -0.6021  -0.3197   0.4821   0.4891   1.4101   1.7172   2.2434
     2.2459   2.3196   3.0011   3.0064   3.1372   3.3575   3.3611   3.6642
     4.0273   4.1261   4.4088   4.4187   4.4541   5.0280   5.1164   5.5850
     7.7072   8.2062   8.5228   8.7529   8.7593   9.1380

          k =-0.5303 0.1768 0.5303 (  7760 PWs)   bands (ev):

    -4.9489  -4.4330  -3.8842  -3.4526  -3.4458  -2.7345  -2.1823  -2.1754
    -0.6073  -0.6014  -0.3152   0.4826   0.4897   1.4144   1.7139   2.2409
     2.2446   2.3166   2.9991   3.0035   3.1318   3.3585   3.3626   3.6594
     4.0305   4.1265   4.4119   4.4197   4.4543   5.0276   5.1233   5.5841
     7.7078   8.2064   8.5229   8.7565   8.7625   9.1390

          k = 0.5303-0.1768 0.5303 (  7760 PWs)   bands (ev):

    -4.9491  -4.4325  -3.8835  -3.4544  -3.4476  -2.7291  -2.1837  -2.1768
    -0.6048  -0.5988  -0.3271   0.4888   0.4959   1.4093   1.7109   2.2400
     2.2425   2.3180   3.0014   3.0067   3.1351   3.3592   3.3630   3.6595
     4.0262   4.1313   4.4023   4.4122   4.4599   5.0346   5.1117   5.5940
     7.7113   8.2127   8.5249   8.7530   8.7593   9.1415

          k = 0.5303 0.5303-0.1768 (  7760 PWs)   bands (ev):

    -4.9493  -4.4331  -3.8833  -3.4544  -3.4458  -2.7301  -2.1818  -2.1769
    -0.6066  -0.6010  -0.3257   0.4826   0.4947   1.4075   1.7157   2.2421
     2.2457   2.3204   3.0021   3.0079   3.1389   3.3578   3.3612   3.6643
     4.0249   4.1287   4.4067   4.4124   4.4569   5.0317   5.1106   5.5899
     7.7090   8.2094   8.5238   8.7505   8.7583   9.1392

          k =-0.5303 0.5303 0.1768 (  7760 PWs)   bands (ev):

    -4.9490  -4.4327  -3.8839  -3.4545  -3.4458  -2.7318  -2.1833  -2.1757
    -0.6088  -0.5973  -0.3212   0.4823   0.4962   1.4118   1.7124   2.2397
     2.2441   2.3174   2.9985   3.0066   3.1336   3.3570   3.3645   3.6595
     4.0282   4.1291   4.4086   4.4145   4.4573   5.0310   5.1176   5.5891
     7.7096   8.2095   8.5239   8.7531   8.7625   9.1402

          k = 0.5303-0.5303 0.1768 (  7760 PWs)   bands (ev):

    -4.9490  -4.4327  -3.8839  -3.4545  -3.4458  -2.7318  -2.1833  -2.1757
    -0.6088  -0.5973  -0.3212   0.4823   0.4962   1.4118   1.7124   2.2397
     2.2441   2.3174   2.9985   3.0066   3.1336   3.3570   3.3645   3.6595
     4.0282   4.1291   4.4086   4.4145   4.4573   5.0310   5.1176   5.5891
     7.7096   8.2095   8.5239   8.7530   8.7625   9.1402

          k =-0.5303-0.5303-0.1768 (  7760 PWs)   bands (ev):

    -4.9487  -4.4324  -3.8844  -3.4545  -3.4458  -2.7336  -2.1820  -2.1774
    -0.6052  -0.5996  -0.3166   0.4839   0.4959   1.4160   1.7092   2.2381
     2.2419   2.3142   2.9972   3.0031   3.1283   3.3603   3.3637   3.6547
     4.0316   4.1292   4.4106   4.4165   4.4577   5.0306   5.1243   5.5882
     7.7102   8.2097   8.5240   8.7573   8.7650   9.1412

          k = 0.0000 0.3536 0.3536 (  7746 PWs)   bands (ev):

    -5.1528  -4.1256  -4.1170  -3.0749  -3.0681  -2.7884  -2.7812  -1.9083
    -0.9069  -0.4762  -0.4691   0.3795   0.3860   1.0377   1.0457   1.9919
     2.8688   2.8760   2.9522   2.9558   3.5589   3.5666   3.6764   3.9121
     4.1761   4.1807   4.5146   4.5204   4.7145   4.7589   4.7691   6.0829
     7.5584   8.3131   8.3188   8.6329   8.6402   9.0153

          k =-0.3536 0.0000-0.3536 (  7746 PWs)   bands (ev):

    -5.1528  -4.1256  -4.1170  -3.0749  -3.0681  -2.7884  -2.7812  -1.9083
    -0.9069  -0.4762  -0.4691   0.3795   0.3860   1.0377   1.0457   1.9919
     2.8688   2.8760   2.9522   2.9558   3.5589   3.5666   3.6764   3.9121
     4.1761   4.1807   4.5146   4.5204   4.7145   4.7589   4.7691   6.0829
     7.5584   8.3131   8.3188   8.6329   8.6402   9.0102

          k = 0.3536 0.0000-0.3536 (  7746 PWs)   bands (ev):

    -5.1532  -4.1262  -4.1176  -3.0734  -3.0666  -2.7859  -2.7788  -1.9145
    -0.8989  -0.4822  -0.4750   0.3741   0.3805   1.0409   1.0488   1.9952
     2.8755   2.8825   2.9526   2.9561   3.5636   3.5713   3.6851   3.9072
     4.1726   4.1771   4.5186   4.5245   4.7130   4.7526   4.7628   6.0720
     7.5522   8.3111   8.3168   8.6282   8.6357   9.0088

          k = 0.3536 0.3536 0.0000 (  7746 PWs)   bands (ev):

    -5.1530  -4.1226  -4.1207  -3.0754  -3.0661  -2.7837  -2.7834  -1.9113
    -0.9030  -0.4756  -0.4755   0.3736   0.3865   1.0383   1.0483   1.9936
     2.8754   2.8758   2.9527   2.9556   3.5620   3.5682   3.6806   3.9097
     4.1766   4.1767   4.5140   4.5249   4.7136   4.7604   4.7616   6.0774
     7.5553   8.3094   8.3204   8.6336   8.6350   9.0114

          k =-0.3536 0.3536 0.0000 (  7746 PWs)   bands (ev):

    -5.1530  -4.1217  -4.1216  -3.0753  -3.0662  -2.7866  -2.7804  -1.9114
    -0.9029  -0.4820  -0.4692   0.3735   0.3865   1.0432   1.0433   1.9936
     2.8753   2.8763   2.9524   2.9557   3.5620   3.5682   3.6807   3.9097
     4.1723   4.1808   4.5193   4.5196   4.7129   4.7606   4.7621   6.0775
     7.5553   8.3095   8.3204   8.6341   8.6344   9.4685

          k = 0.0000-0.7071 0.0000 (  7768 PWs)   bands (ev):

    -4.6086  -4.5997  -3.6339  -3.6300  -3.6237  -3.6198  -1.3364  -1.3275
    -1.3232  -1.3228   0.8528   0.8599   0.8609   0.8681   2.4466   2.4497
     2.4513   2.4527   2.5536   2.5547   2.5586   2.5599   2.8549   2.8578
     4.4429   4.4484   4.4536   4.4589   5.0165   5.0228   5.0276   5.0341
     7.4860   7.4902   8.8250   8.8315   8.8335   8.8398

          k = 0.0000 0.0000-0.7071 (  7768 PWs)   bands (ev):

    -4.6042  -4.6041  -3.6396  -3.6230  -3.6224  -3.6224  -1.3379  -1.3294
    -1.3256  -1.3169   0.8533   0.8533   0.8670   0.8681   2.4451   2.4496
     2.4505   2.4550   2.5544   2.5547   2.5561   2.5614   2.8562   2.8564
     4.4509   4.4510   4.4510   4.4512   5.0177   5.0263   5.0285   5.0286
     7.4881   7.4881   8.8300   8.8301   8.8333   8.8363

          k = 0.3536-0.7071 0.0000 (  7788 PWs)   bands (ev):

    -4.3615  -4.3528  -4.3505  -4.3464  -2.5462  -2.5361  -2.5316  -2.5282
    -0.2435  -0.2392  -0.2331  -0.2269   2.0541   2.0614   2.0672   2.0694
     2.0713   2.0736   2.0763   2.0784   3.6060   3.6130   3.6148   3.6185
     3.7386   3.7413   3.7472   3.7498   4.9161   4.9225   4.9249   4.9329
     8.8172   8.8241   8.8283   8.8306   9.2389   9.2474

          k = 0.7071 0.0000 0.3536 (  7788 PWs)   bands (ev):

    -4.3632  -4.3523  -4.3494  -4.3462  -2.5410  -2.5396  -2.5335  -2.5280
    -0.2443  -0.2356  -0.2331  -0.2297   2.0550   2.0610   2.0694   2.0696
     2.0709   2.0732   2.0757   2.0769   3.6109   3.6117   3.6143   3.6156
     3.7395   3.7413   3.7473   3.7485   4.9140   4.9244   4.9289   4.9290
     8.8213   8.8232   8.8251   8.8308   9.2463   9.2496

     the Fermi energy is     6.6576 ev

!    total energy              =    -182.70864102 Ry
     estimated scf accuracy    <          4.5E-11 Ry
     smearing contrib. (-TS)   =      -0.00000693 Ry
     internal energy E=F+TS    =    -182.70863409 Ry

     The total energy is F=E-TS. E is the sum of the following terms:
     one-electron contribution =      42.31681906 Ry
     hartree contribution      =       8.69871132 Ry
     xc contribution           =     -98.63149629 Ry
     ewald contribution        =    -135.09266817 Ry

     convergence has been achieved in  10 iterations

     Forces acting on atoms (cartesian axes, Ry/au):

     atom    1 type  1   force =    -0.00145093   -0.00660024   -0.00102889
     atom    2 type  1   force =     0.00660022    0.00145084    0.00102866
     atom    3 type  1   force =    -0.00142540    0.00117790    0.00119554
     atom    4 type  1   force =    -0.00062598    0.00141259    0.00096965
     atom    5 type  1   force =    -0.00141241    0.00062576   -0.00096935
     atom    6 type  1   force =    -0.00117792    0.00142502   -0.00119544
     atom    7 type  1   force =    -0.00015363    0.00013461    0.00004950
     atom    8 type  1   force =    -0.00013496    0.00015349   -0.00004914
     atom    9 type  1   force =    -0.00120972   -0.00078426    0.00096844
     atom   10 type  1   force =     0.00078425    0.00120983   -0.00096885
     atom   11 type  1   force =     0.00004973   -0.00029217   -0.00004997
     atom   12 type  1   force =    -0.00023452   -0.00004944    0.00015354
     atom   13 type  1   force =     0.00004981    0.00023425   -0.00015365
     atom   14 type  1   force =     0.00029264   -0.00004984    0.00004988
     atom   15 type  1   force =     0.00005036    0.00000183   -0.00004983
     atom   16 type  1   force =    -0.00000155   -0.00005017    0.00004993

     Total force =     0.010783     Total SCF correction =     0.000013

     Writing output data file ./results/fc3_disp.save/

     init_run     :     58.11s CPU      8.00s WALL (       1 calls)
     electrons    :   2680.58s CPU    246.25s WALL (       1 calls)
     forces       :     36.55s CPU      3.18s WALL (       1 calls)

     Called by init_run:
     wfcinit      :     57.06s CPU      7.07s WALL (       1 calls)
     potinit      :      0.26s CPU      0.30s WALL (       1 calls)
     hinit0       :      0.19s CPU      0.19s WALL (       1 calls)

     Called by electrons:
     c_bands      :   2138.64s CPU    202.25s WALL (      11 calls)
     sum_band     :    533.21s CPU     37.30s WALL (      11 calls)
     v_of_rho     :      2.34s CPU      2.61s WALL (      11 calls)
     newd         :      6.32s CPU      4.14s WALL (      11 calls)
     mix_rho      :      0.35s CPU      0.35s WALL (      11 calls)

     Called by c_bands:
     init_us_2    :    130.05s CPU      8.27s WALL (     864 calls)
     cegterg      :   1682.55s CPU    150.16s WALL (     396 calls)

     Called by *egterg:
     cdiaghg      :     63.99s CPU      4.01s WALL (    2356 calls)
     h_psi        :   1321.53s CPU    130.19s WALL (    2428 calls)
     s_psi        :     82.32s CPU      5.31s WALL (    2428 calls)
     g_psi        :     47.14s CPU      2.98s WALL (    1996 calls)

     Called by h_psi:
     h_psi:calbec :    149.14s CPU     10.30s WALL (    2428 calls)
     vloc_psi     :   1077.69s CPU    113.56s WALL (    2428 calls)
     add_vuspsi   :     81.20s CPU      5.17s WALL (    2428 calls)

     General routines
     calbec       :    217.43s CPU     15.01s WALL (    2968 calls)
     fft          :      2.99s CPU      2.52s WALL (     153 calls)
     ffts         :      0.38s CPU      0.04s WALL (      22 calls)
     fftw         :   1243.94s CPU    118.49s WALL (  107256 calls)
     interpolate  :      0.21s CPU      0.21s WALL (      11 calls)

     Parallel routines

     PWSCF        :  46m15.34s CPU   4m17.60s WALL


   This run was terminated on:  20:33: 4  25Mar2026            

=------------------------------------------------------------------------------=
   JOB DONE.
=------------------------------------------------------------------------------=
