
     Program PWSCF v.6.7MaX starts on 25Mar2026 at 17: 7:20 

     This program is part of the open-source Quantum ESPRESSO suite
     for quantum simulation of materials; please cite
         "P. Giannozzi et al., J. Phys.:Condens. Matter 21 395502 (2009);
         "P. Giannozzi et al., J. Phys.:Condens. Matter 29 465901 (2017);
          URL http://www.quantum-espresso.org", 
     in publications or presentations arising from this work. More details at
     http://www.quantum-espresso.org/quote

     Parallel version (MPI), running on     1 processors

     MPI processes distributed on     1 nodes
     Reading input from /home/paul/Documents/ETH/master/quatrex/phonon/input_calc/fc3_si/DISP.supercell_template.in.09

     Current dimensions of program PWSCF are:
     Max number of different atomic species (ntypx) = 10
     Max number of k-points (npk) =  40000
     Max angular momentum in pseudopotentials (lmaxx) =  3

     Subspace diagonalization in iterative solution of the eigenvalue problem:
     a serial algorithm will be used


     G-vector sticks info
     --------------------
     sticks:   dense  smooth     PW     G-vecs:    dense   smooth      PW
     Sum        4117    2065    583               175263    62079    9257



     bravais-lattice index     =            0
     lattice parameter (alat)  =      14.4362  a.u.
     unit-cell volume          =    2127.3654 (a.u.)^3
     number of atoms/cell      =           16
     number of atomic types    =            1
     number of electrons       =        64.00
     number of Kohn-Sham states=           38
     kinetic-energy cutoff     =      36.0000  Ry
     charge density cutoff     =     288.0000  Ry
     scf convergence threshold =      1.0E-10
     mixing beta               =       0.7000
     number of iterations used =            8  plain     mixing
     Exchange-correlation= PBE
                           (   1   4   3   4   0   0   0)

     celldm(1)=  14.436183  celldm(2)=   0.000000  celldm(3)=   0.000000
     celldm(4)=   0.000000  celldm(5)=   0.000000  celldm(6)=   0.000000

     crystal axes: (cart. coord. in units of alat)
               a(1) = (   0.000000   0.707107   0.707107 )  
               a(2) = (   0.707107   0.000000   0.707107 )  
               a(3) = (   0.707107   0.707107   0.000000 )  

     reciprocal axes: (cart. coord. in units 2 pi/alat)
               b(1) = ( -0.707107  0.707107  0.707107 )  
               b(2) = (  0.707107 -0.707107  0.707107 )  
               b(3) = (  0.707107  0.707107 -0.707107 )  


     PseudoPot. # 1 for Si read from file:
     ../scf_disp/pseudo/Si.pbe-n-rrkjus_psl.1.0.0.UPF
     MD5 check sum: fa25574f73a70a4139f2adfbefec430c
     Pseudo is Ultrasoft + core correction, Zval =  4.0
     Generated using &quot;atomic&quot; code by A. Dal Corso  v.6.3
     Using radial grid of 1141 points,  6 beta functions with: 
                l(1) =   0
                l(2) =   0
                l(3) =   1
                l(4) =   1
                l(5) =   2
                l(6) =   2
     Q(r) pseudized with 0 coefficients 


     atomic species   valence    mass     pseudopotential
        Si             4.00    28.08500     Si( 1.00)

     No symmetry found



   Cartesian axes

     site n.     atom                  positions (alat units)
         1           Si  tau(   1) = (   0.0000000  -0.0013090   0.0000000  )
         2           Si  tau(   2) = (   0.1780857   0.1767767   0.1767767  )
         3           Si  tau(   3) = (   0.0000000   0.3535534   0.3535534  )
         4           Si  tau(   4) = (   0.1767767   0.5303301   0.5303301  )
         5           Si  tau(   5) = (   0.3535534   0.0000000   0.3535534  )
         6           Si  tau(   6) = (   0.5303301   0.1767767   0.5303301  )
         7           Si  tau(   7) = (   0.3535534   0.3535534   0.7071068  )
         8           Si  tau(   8) = (   0.5303301   0.5303301   0.8838835  )
         9           Si  tau(   9) = (   0.3535534   0.3535534   0.0000000  )
        10           Si  tau(  10) = (   0.5303301   0.5303301   0.1767767  )
        11           Si  tau(  11) = (   0.3535534   0.7071068   0.3535534  )
        12           Si  tau(  12) = (   0.5303301   0.8838835   0.5303301  )
        13           Si  tau(  13) = (   0.7071068   0.3535534   0.3535534  )
        14           Si  tau(  14) = (   0.8838835   0.5303301   0.5303301  )
        15           Si  tau(  15) = (   0.7071068   0.7071068   0.7071068  )
        16           Si  tau(  16) = (   0.8838835   0.8838835   0.8838835  )

     number of k points=    36  Gaussian smearing, width (Ry)=  0.0100
                       cart. coord. in units 2pi/alat
        k(    1) = (   0.0000000   0.0000000   0.0000000), wk =   0.0312500
        k(    2) = (   0.1767767   0.1767767  -0.1767767), wk =   0.0625000
        k(    3) = (  -0.3535534  -0.3535534   0.3535534), wk =   0.0312500
        k(    4) = (   0.3535534   0.0000000   0.0000000), wk =   0.0625000
        k(    5) = (  -0.1767767  -0.5303301   0.5303301), wk =   0.0625000
        k(    6) = (   0.0000000  -0.3535534   0.3535534), wk =   0.0625000
        k(    7) = (  -0.7071068   0.0000000   0.0000000), wk =   0.0312500
        k(    8) = (  -0.7071068   0.3535534   0.0000000), wk =   0.0625000
        k(    9) = (  -0.1767767  -0.1767767  -0.1767767), wk =   0.0625000
        k(   10) = (  -0.1767767   0.1767767   0.1767767), wk =   0.0625000
        k(   11) = (   0.1767767  -0.1767767   0.1767767), wk =   0.0625000
        k(   12) = (   0.3535534   0.3535534   0.3535534), wk =   0.0312500
        k(   13) = (   0.3535534  -0.3535534  -0.3535534), wk =   0.0312500
        k(   14) = (  -0.3535534   0.3535534  -0.3535534), wk =   0.0312500
        k(   15) = (   0.0000000   0.3535534   0.0000000), wk =   0.0625000
        k(   16) = (   0.0000000   0.0000000   0.3535534), wk =   0.0625000
        k(   17) = (   0.1767767   0.5303301   0.5303301), wk =   0.0625000
        k(   18) = (   0.1767767  -0.5303301  -0.5303301), wk =   0.0625000
        k(   19) = (  -0.1767767   0.5303301  -0.5303301), wk =   0.0625000
        k(   20) = (  -0.5303301  -0.1767767  -0.5303301), wk =   0.0625000
        k(   21) = (   0.5303301   0.1767767  -0.5303301), wk =   0.0625000
        k(   22) = (  -0.5303301   0.1767767   0.5303301), wk =   0.0625000
        k(   23) = (   0.5303301  -0.1767767   0.5303301), wk =   0.0625000
        k(   24) = (   0.5303301   0.5303301  -0.1767767), wk =   0.0625000
        k(   25) = (  -0.5303301   0.5303301   0.1767767), wk =   0.0625000
        k(   26) = (   0.5303301  -0.5303301   0.1767767), wk =   0.0625000
        k(   27) = (  -0.5303301  -0.5303301  -0.1767767), wk =   0.0625000
        k(   28) = (   0.0000000   0.3535534   0.3535534), wk =   0.0625000
        k(   29) = (  -0.3535534   0.0000000  -0.3535534), wk =   0.0625000
        k(   30) = (   0.3535534   0.0000000  -0.3535534), wk =   0.0625000
        k(   31) = (   0.3535534   0.3535534   0.0000000), wk =   0.0625000
        k(   32) = (  -0.3535534   0.3535534   0.0000000), wk =   0.0625000
        k(   33) = (   0.0000000  -0.7071068   0.0000000), wk =   0.0312500
        k(   34) = (   0.0000000   0.0000000  -0.7071068), wk =   0.0312500
        k(   35) = (   0.3535534  -0.7071068   0.0000000), wk =   0.0625000
        k(   36) = (   0.7071068   0.0000000   0.3535534), wk =   0.0625000

     Dense  grid:   175263 G-vectors     FFT dimensions: (  80,  80,  80)

     Smooth grid:    62079 G-vectors     FFT dimensions: (  60,  60,  60)

     Estimated max dynamical RAM per process >     930.95 MB

     Initial potential from superposition of free atoms

     starting charge   63.99105, renormalised to   64.00000
     Starting wfcs are   64 randomized atomic wfcs

     total cpu time spent up to now is        8.5 secs

     Self-consistent Calculation

     iteration #  1     ecut=    36.00 Ry     beta= 0.70
     Davidson diagonalization with overlap
     ethr =  1.00E-02,  avg # of iterations =  3.1

     Threshold (ethr) on eigenvalues was too large:
     Diagonalizing with lowered threshold

     Davidson diagonalization with overlap
     ethr =  6.41E-04,  avg # of iterations =  2.5

     total cpu time spent up to now is       50.8 secs

     total energy              =    -182.68672521 Ry
     estimated scf accuracy    <       0.44679838 Ry

     iteration #  2     ecut=    36.00 Ry     beta= 0.70
     Davidson diagonalization with overlap
     ethr =  6.98E-04,  avg # of iterations =  1.0

     total cpu time spent up to now is       67.8 secs

     total energy              =    -182.70357547 Ry
     estimated scf accuracy    <       0.02123157 Ry

     iteration #  3     ecut=    36.00 Ry     beta= 0.70
     Davidson diagonalization with overlap
     c_bands:  1 eigenvalues not converged
     c_bands:  2 eigenvalues not converged
     c_bands:  3 eigenvalues not converged
     c_bands:  1 eigenvalues not converged
     c_bands:  1 eigenvalues not converged
     c_bands:  1 eigenvalues not converged
     c_bands:  1 eigenvalues not converged
     c_bands:  1 eigenvalues not converged
     c_bands:  2 eigenvalues not converged
     c_bands:  1 eigenvalues not converged
     ethr =  3.32E-05,  avg # of iterations = 13.2

     total cpu time spent up to now is       98.5 secs

     total energy              =    -182.70832925 Ry
     estimated scf accuracy    <       0.00067140 Ry

     iteration #  4     ecut=    36.00 Ry     beta= 0.70
     Davidson diagonalization with overlap
     c_bands:  1 eigenvalues not converged
     ethr =  1.05E-06,  avg # of iterations =  9.9

     total cpu time spent up to now is      127.7 secs

     total energy              =    -182.70861576 Ry
     estimated scf accuracy    <       0.00008897 Ry

     iteration #  5     ecut=    36.00 Ry     beta= 0.70
     Davidson diagonalization with overlap
     c_bands:  1 eigenvalues not converged
     ethr =  1.39E-07,  avg # of iterations =  3.9

     total cpu time spent up to now is      150.5 secs

     total energy              =    -182.70863935 Ry
     estimated scf accuracy    <       0.00000727 Ry

     iteration #  6     ecut=    36.00 Ry     beta= 0.70
     Davidson diagonalization with overlap
     ethr =  1.14E-08,  avg # of iterations =  5.3

     total cpu time spent up to now is      176.0 secs

     total energy              =    -182.70864177 Ry
     estimated scf accuracy    <       0.00000095 Ry

     iteration #  7     ecut=    36.00 Ry     beta= 0.70
     Davidson diagonalization with overlap
     ethr =  1.48E-09,  avg # of iterations =  4.1

     total cpu time spent up to now is      198.2 secs

     total energy              =    -182.70864190 Ry
     estimated scf accuracy    <       0.00000017 Ry

     iteration #  8     ecut=    36.00 Ry     beta= 0.70
     Davidson diagonalization with overlap
     ethr =  2.72E-10,  avg # of iterations =  3.5

     total cpu time spent up to now is      220.8 secs

     total energy              =    -182.70864194 Ry
     estimated scf accuracy    <          6.1E-09 Ry

     iteration #  9     ecut=    36.00 Ry     beta= 0.70
     Davidson diagonalization with overlap
     ethr =  9.48E-12,  avg # of iterations =  5.2

     total cpu time spent up to now is      249.0 secs

     total energy              =    -182.70864195 Ry
     estimated scf accuracy    <          2.2E-09 Ry

     iteration # 10     ecut=    36.00 Ry     beta= 0.70
     Davidson diagonalization with overlap
     c_bands:  1 eigenvalues not converged
     c_bands:  1 eigenvalues not converged
     ethr =  3.41E-12,  avg # of iterations =  3.4

     total cpu time spent up to now is      270.5 secs

     End of self-consistent calculation

          k = 0.0000 0.0000 0.0000 (  7799 PWs)   bands (ev):

    -5.7007  -3.3356  -3.3327  -3.3255  -3.3228  -1.5113  -1.5028  -1.5027
    -1.4987  -1.4922  -1.4848  -0.6826  -0.6766  -0.6738  -0.6676   3.4718
     3.4738   3.4754   3.4761   3.4771   3.4822   5.1468   5.1484   5.1563
     5.1567   5.1584   5.1618   5.1639   5.1745   6.3639   6.3725   6.3812
     7.0463   7.0466   7.0490   7.0536   7.0593   7.0603

          k = 0.1768 0.1768-0.1768 (  7757 PWs)   bands (ev):

    -5.4938  -3.9802  -3.2498  -3.2422  -3.2392  -2.3701  -2.3602  -2.3579
    -0.5042  -0.4944  -0.4923  -0.4478  -0.4446  -0.4358   0.3615   2.8716
     2.8761   2.8783   3.6469   3.6486   3.6531   4.0577   4.0639   4.0672
     4.7605   4.7880   4.7885   4.7950   5.2696   5.2760   6.0778   6.0852
     7.2390   7.2437   7.2474   8.0949   8.3248   8.3300

          k =-0.3536-0.3536 0.3536 (  7744 PWs)   bands (ev):

    -4.8934  -4.8855  -2.9553  -2.9443  -2.9442  -2.9437  -2.9338  -2.9328
    -0.0615  -0.0600  -0.0574  -0.0536  -0.0519  -0.0373   2.4083   2.4101
     2.7706   2.7770   2.7814   2.7827   2.7841   2.7855   4.1294   4.1301
     4.1302   4.1350   4.1375   4.1483   5.5980   5.5985   5.6021   5.6155
     7.8751   7.8755   7.8756   7.8761   7.8839   7.8930

          k = 0.3536 0.0000 0.0000 (  7715 PWs)   bands (ev):

    -5.4241  -3.4998  -3.4964  -3.4897  -3.4865  -3.2731  -1.4222  -1.4213
    -1.4174  -1.4086  -0.0753  -0.0689  -0.0663  -0.0599   0.6018   2.8937
     2.8961   2.8979   2.9002   3.7225   3.7270   3.8739   3.8787   3.8818
     3.8868   5.0515   5.0801   5.0871   5.0920   5.0986   5.5463   5.5542
     6.9627   7.8867   8.3295   8.3328   8.3397   8.3832

          k =-0.1768-0.5303 0.5303 (  7760 PWs)   bands (ev):

    -4.9488  -4.4321  -3.8840  -3.4544  -3.4477  -2.7309  -2.1838  -2.1770
    -0.6041  -0.5982  -0.3226   0.4894   0.4965   1.4135   1.7077   2.2381
     2.2406   2.3149   2.9989   3.0041   3.1297   3.3605   3.3642   3.6547
     4.0295   4.1315   4.4043   4.4144   4.4603   5.0341   5.1185   5.5931
     7.7119   8.2129   8.5250   8.7566   8.7626   9.1424

          k = 0.0000-0.3536 0.3536 (  7746 PWs)   bands (ev):

    -5.1528  -4.1255  -4.1170  -3.0748  -3.0682  -2.7885  -2.7811  -1.9083
    -0.9069  -0.4762  -0.4691   0.3795   0.3861   1.0377   1.0457   1.9919
     2.8690   2.8759   2.9522   2.9556   3.5590   3.5666   3.6763   3.9121
     4.1761   4.1807   4.5145   4.5203   4.7146   4.7585   4.7694   6.0829
     7.5584   8.3131   8.3187   8.6330   8.6401   9.4707

          k =-0.7071 0.0000 0.0000 (  7768 PWs)   bands (ev):

    -4.6084  -4.5998  -3.6338  -3.6300  -3.6237  -3.6199  -1.3321  -1.3317
    -1.3275  -1.3186   0.8528   0.8599   0.8609   0.8681   2.4475   2.4490
     2.4505   2.4533   2.5535   2.5547   2.5586   2.5600   2.8549   2.8578
     4.4429   4.4484   4.4536   4.4589   5.0164   5.0228   5.0276   5.0342
     7.4860   7.4902   8.8251   8.8315   8.8334   8.8398

          k =-0.7071 0.3536 0.0000 (  7788 PWs)   bands (ev):

    -4.3591  -4.3550  -4.3527  -4.3443  -2.5428  -2.5395  -2.5350  -2.5248
    -0.2444  -0.2383  -0.2322  -0.2278   2.0579   2.0604   2.0655   2.0674
     2.0699   2.0714   2.0770   2.0821   3.6078   3.6115   3.6133   3.6198
     3.7386   3.7409   3.7472   3.7501   4.9153   4.9232   4.9257   4.9322
     8.8196   8.8220   8.8260   8.8328   9.2413   9.2463

          k =-0.1768-0.1768-0.1768 (  7757 PWs)   bands (ev):

    -5.4939  -3.9828  -3.2464  -3.2435  -3.2360  -2.3667  -2.3644  -2.3544
    -0.5050  -0.5010  -0.4920  -0.4526  -0.4463  -0.4422   0.3708   2.8776
     2.8787   2.8847   3.6440   3.6473   3.6479   4.0667   4.0680   4.0788
     4.7709   4.7817   4.7854   4.7864   5.2664   5.2729   6.0717   6.0790
     7.2363   7.2378   7.2432   8.0918   8.3244   8.3335

          k =-0.1768 0.1768 0.1768 (  7757 PWs)   bands (ev):

    -5.4938  -3.9815  -3.2487  -3.2428  -3.2371  -2.3689  -2.3623  -2.3557
    -0.5051  -0.4978  -0.4919  -0.4520  -0.4453  -0.4369   0.3662   2.8739
     2.8780   2.8816   3.6451   3.6473   3.6516   4.0614   4.0666   4.0731
     4.7654   4.7830   4.7876   4.7922   5.2656   5.2768   6.0722   6.0847
     7.2371   7.2405   7.2460   8.0934   8.3233   8.3301

          k = 0.1768-0.1768 0.1768 (  7757 PWs)   bands (ev):

    -5.4938  -3.9815  -3.2487  -3.2428  -3.2371  -2.3689  -2.3623  -2.3557
    -0.5051  -0.4978  -0.4919  -0.4520  -0.4453  -0.4369   0.3662   2.8739
     2.8780   2.8816   3.6451   3.6473   3.6516   4.0614   4.0666   4.0731
     4.7654   4.7830   4.7876   4.7922   5.2656   5.2768   6.0722   6.0847
     7.2371   7.2405   7.2460   8.0934   8.3264   8.3301

          k = 0.3536 0.3536 0.3536 (  7744 PWs)   bands (ev):

    -4.8931  -4.8873  -2.9492  -2.9465  -2.9440  -2.9418  -2.9404  -2.9236
    -0.0732  -0.0631  -0.0587  -0.0563  -0.0561  -0.0450   2.4139   2.4209
     2.7820   2.7828   2.7842   2.7881   2.7885   2.8054   4.1238   4.1269
     4.1323   4.1325   4.1341   4.1364   5.5911   5.5936   5.6061   5.6068
     7.8701   7.8707   7.8709   7.8754   7.8808   7.8831

          k = 0.3536-0.3536-0.3536 (  7744 PWs)   bands (ev):

    -4.8927  -4.8869  -2.9525  -2.9460  -2.9438  -2.9433  -2.9369  -2.9272
    -0.0695  -0.0604  -0.0591  -0.0572  -0.0512  -0.0397   2.4098   2.4169
     2.7756   2.7816   2.7827   2.7849   2.7861   2.7951   4.1253   4.1307
     4.1321   4.1340   4.1342   4.1418   5.5896   5.6009   5.6019   5.6136
     7.8695   7.8740   7.8774   7.8777   7.8787   7.8877

          k =-0.3536 0.3536-0.3536 (  7744 PWs)   bands (ev):

    -4.8927  -4.8870  -2.9525  -2.9460  -2.9438  -2.9433  -2.9369  -2.9272
    -0.0695  -0.0604  -0.0591  -0.0572  -0.0512  -0.0397   2.4098   2.4169
     2.7756   2.7816   2.7827   2.7849   2.7861   2.7951   4.1253   4.1307
     4.1321   4.1340   4.1342   4.1418   5.5896   5.6009   5.6019   5.6136
     7.8696   7.8743   7.8774   7.8778   7.8789   7.8877

          k = 0.0000 0.3536 0.0000 (  7715 PWs)   bands (ev):

    -5.4241  -3.4998  -3.4964  -3.4897  -3.4865  -3.2731  -1.4222  -1.4213
    -1.4174  -1.4086  -0.0753  -0.0689  -0.0663  -0.0599   0.6018   2.8937
     2.8961   2.8979   2.9002   3.7225   3.7270   3.8739   3.8787   3.8818
     3.8868   5.0515   5.0801   5.0871   5.0920   5.0986   5.5463   5.5542
     6.9627   7.8867   8.3278   8.3333   8.3392   8.3829

          k = 0.0000 0.0000 0.3536 (  7715 PWs)   bands (ev):

    -5.4241  -3.4987  -3.4969  -3.4948  -3.4819  -3.2732  -1.4284  -1.4190
    -1.4158  -1.4063  -0.0748  -0.0720  -0.0670  -0.0566   0.6017   2.8914
     2.8952   2.8987   2.9025   3.7247   3.7249   3.8727   3.8771   3.8805
     3.8908   5.0496   5.0860   5.0878   5.0904   5.0957   5.5501   5.5503
     6.9627   7.8867   8.3259   8.3348   8.3377   8.3828

          k = 0.1768 0.5303 0.5303 (  7760 PWs)   bands (ev):

    -4.9492  -4.4334  -3.8837  -3.4526  -3.4457  -2.7328  -2.1821  -2.1752
    -0.6080  -0.6021  -0.3198   0.4820   0.4891   1.4101   1.7171   2.2428
     2.2462   2.3199   3.0016   3.0058   3.1373   3.3572   3.3613   3.6642
     4.0273   4.1262   4.4097   4.4178   4.4541   5.0281   5.1164   5.5850
     7.7073   8.2062   8.5228   8.7531   8.7592   9.1380

          k = 0.1768-0.5303-0.5303 (  7760 PWs)   bands (ev):

    -4.9489  -4.4330  -3.8843  -3.4526  -3.4458  -2.7345  -2.1823  -2.1754
    -0.6073  -0.6014  -0.3152   0.4827   0.4897   1.4144   1.7139   2.2414
     2.2440   2.3166   2.9987   3.0039   3.1319   3.3587   3.3623   3.6594
     4.0305   4.1265   4.4107   4.4208   4.4544   5.0275   5.1234   5.5841
     7.7078   8.2064   8.5228   8.7564   8.7626   9.1390

          k =-0.1768 0.5303-0.5303 (  7760 PWs)   bands (ev):

    -4.9491  -4.4325  -3.8835  -3.4544  -3.4477  -2.7292  -2.1837  -2.1767
    -0.6047  -0.5989  -0.3271   0.4888   0.4959   1.4093   1.7109   2.2395
     2.2431   2.3179   3.0019   3.0061   3.1351   3.3590   3.3632   3.6595
     4.0262   4.1313   4.4033   4.4113   4.4598   5.0347   5.1116   5.5940
     7.7113   8.2127   8.5250   8.7531   8.7592   9.1415

          k =-0.5303-0.1768-0.5303 (  7760 PWs)   bands (ev):

    -4.9492  -4.4334  -3.8837  -3.4526  -3.4457  -2.7328  -2.1821  -2.1752
    -0.6080  -0.6021  -0.3198   0.4820   0.4891   1.4101   1.7171   2.2428
     2.2462   2.3199   3.0016   3.0058   3.1373   3.3572   3.3613   3.6642
     4.0273   4.1262   4.4097   4.4178   4.4541   5.0281   5.1164   5.5850
     7.7073   8.2062   8.5228   8.7531   8.7592   9.1380

          k = 0.5303 0.1768-0.5303 (  7760 PWs)   bands (ev):

    -4.9488  -4.4321  -3.8840  -3.4544  -3.4477  -2.7309  -2.1838  -2.1770
    -0.6041  -0.5982  -0.3226   0.4894   0.4965   1.4135   1.7077   2.2381
     2.2406   2.3149   2.9989   3.0041   3.1297   3.3605   3.3642   3.6547
     4.0295   4.1315   4.4043   4.4144   4.4603   5.0341   5.1185   5.5931
     7.7119   8.2129   8.5250   8.7565   8.7626   9.1424

          k =-0.5303 0.1768 0.5303 (  7760 PWs)   bands (ev):

    -4.9491  -4.4325  -3.8835  -3.4544  -3.4477  -2.7292  -2.1837  -2.1767
    -0.6047  -0.5989  -0.3271   0.4888   0.4959   1.4093   1.7109   2.2395
     2.2431   2.3179   3.0019   3.0061   3.1351   3.3590   3.3632   3.6595
     4.0262   4.1313   4.4033   4.4113   4.4598   5.0347   5.1116   5.5940
     7.7113   8.2127   8.5250   8.7531   8.7593   9.1415

          k = 0.5303-0.1768 0.5303 (  7760 PWs)   bands (ev):

    -4.9489  -4.4330  -3.8843  -3.4526  -3.4458  -2.7345  -2.1823  -2.1754
    -0.6073  -0.6014  -0.3152   0.4827   0.4897   1.4144   1.7139   2.2414
     2.2440   2.3166   2.9987   3.0039   3.1319   3.3587   3.3623   3.6594
     4.0305   4.1265   4.4107   4.4208   4.4544   5.0275   5.1234   5.5841
     7.7078   8.2064   8.5228   8.7564   8.7626   9.1389

          k = 0.5303 0.5303-0.1768 (  7760 PWs)   bands (ev):

    -4.9487  -4.4323  -3.8844  -3.4544  -3.4459  -2.7336  -2.1820  -2.1774
    -0.6052  -0.5996  -0.3167   0.4838   0.4959   1.4160   1.7092   2.2383
     2.2418   2.3143   2.9971   3.0031   3.1282   3.3603   3.3638   3.6547
     4.0314   4.1293   4.4107   4.4165   4.4577   5.0306   5.1244   5.5882
     7.7102   8.2097   8.5240   8.7575   8.7648   9.1411

          k =-0.5303 0.5303 0.1768 (  7760 PWs)   bands (ev):

    -4.9490  -4.4327  -3.8839  -3.4545  -3.4457  -2.7318  -2.1834  -2.1757
    -0.6089  -0.5973  -0.3212   0.4824   0.4961   1.4118   1.7124   2.2400
     2.2439   2.3174   2.9986   3.0065   3.1336   3.3570   3.3645   3.6595
     4.0282   4.1291   4.4087   4.4144   4.4573   5.0310   5.1176   5.5891
     7.7096   8.2095   8.5239   8.7531   8.7624   9.1402

          k = 0.5303-0.5303 0.1768 (  7760 PWs)   bands (ev):

    -4.9490  -4.4327  -3.8839  -3.4545  -3.4457  -2.7318  -2.1834  -2.1757
    -0.6089  -0.5973  -0.3212   0.4824   0.4961   1.4118   1.7124   2.2400
     2.2439   2.3174   2.9986   3.0065   3.1336   3.3570   3.3645   3.6595
     4.0282   4.1291   4.4087   4.4144   4.4573   5.0310   5.1176   5.5891
     7.7096   8.2095   8.5239   8.7532   8.7624   9.1402

          k =-0.5303-0.5303-0.1768 (  7760 PWs)   bands (ev):

    -4.9493  -4.4331  -3.8833  -3.4544  -3.4458  -2.7301  -2.1818  -2.1768
    -0.6066  -0.6010  -0.3256   0.4826   0.4947   1.4075   1.7157   2.2422
     2.2455   2.3203   3.0021   3.0080   3.1390   3.3578   3.3613   3.6643
     4.0251   4.1286   4.4066   4.4123   4.4569   5.0317   5.1105   5.5899
     7.7090   8.2094   8.5239   8.7507   8.7582   9.1393

          k = 0.0000 0.3536 0.3536 (  7746 PWs)   bands (ev):

    -5.1532  -4.1262  -4.1177  -3.0733  -3.0667  -2.7860  -2.7787  -1.9145
    -0.8989  -0.4822  -0.4751   0.3740   0.3805   1.0409   1.0489   1.9952
     2.8756   2.8822   2.9528   2.9561   3.5636   3.5712   3.6852   3.9072
     4.1726   4.1771   4.5186   4.5245   4.7130   4.7522   4.7631   6.0720
     7.5522   8.3112   8.3168   8.6284   8.6356   9.0117

          k =-0.3536 0.0000-0.3536 (  7746 PWs)   bands (ev):

    -5.1532  -4.1262  -4.1177  -3.0733  -3.0667  -2.7860  -2.7787  -1.9145
    -0.8989  -0.4822  -0.4751   0.3740   0.3805   1.0409   1.0489   1.9952
     2.8756   2.8822   2.9528   2.9561   3.5636   3.5712   3.6852   3.9072
     4.1726   4.1771   4.5186   4.5245   4.7130   4.7522   4.7631   6.0720
     7.5522   8.3112   8.3168   8.6284   8.6356   9.0128

          k = 0.3536 0.0000-0.3536 (  7746 PWs)   bands (ev):

    -5.1528  -4.1255  -4.1170  -3.0748  -3.0682  -2.7885  -2.7811  -1.9083
    -0.9069  -0.4762  -0.4691   0.3795   0.3861   1.0377   1.0457   1.9919
     2.8690   2.8759   2.9522   2.9556   3.5590   3.5666   3.6763   3.9121
     4.1761   4.1807   4.5145   4.5203   4.7146   4.7585   4.7694   6.0829
     7.5584   8.3131   8.3187   8.6330   8.6401   9.0139

          k = 0.3536 0.3536 0.0000 (  7746 PWs)   bands (ev):

    -5.1530  -4.1226  -4.1207  -3.0753  -3.0663  -2.7837  -2.7835  -1.9113
    -0.9030  -0.4756  -0.4755   0.3735   0.3865   1.0383   1.0483   1.9936
     2.8755   2.8758   2.9523   2.9560   3.5620   3.5681   3.6806   3.9097
     4.1766   4.1767   4.5141   4.5248   4.7136   4.7598   4.7622   6.0774
     7.5553   8.3095   8.3203   8.6336   8.6350   9.0103

          k =-0.3536 0.3536 0.0000 (  7746 PWs)   bands (ev):

    -5.1530  -4.1217  -4.1216  -3.0754  -3.0662  -2.7866  -2.7804  -1.9114
    -0.9029  -0.4820  -0.4692   0.3736   0.3865   1.0432   1.0433   1.9936
     2.8753   2.8763   2.9524   2.9557   3.5620   3.5682   3.6807   3.9097
     4.1724   4.1807   4.5193   4.5196   4.7129   4.7606   4.7622   6.0775
     7.5553   8.3095   8.3204   8.6341   8.6343   9.0126

          k = 0.0000-0.7071 0.0000 (  7768 PWs)   bands (ev):

    -4.6084  -4.5998  -3.6338  -3.6300  -3.6237  -3.6199  -1.3321  -1.3317
    -1.3275  -1.3186   0.8528   0.8599   0.8609   0.8681   2.4475   2.4490
     2.4505   2.4533   2.5535   2.5547   2.5586   2.5600   2.8549   2.8578
     4.4429   4.4484   4.4536   4.4589   5.0164   5.0228   5.0276   5.0342
     7.4860   7.4902   8.8251   8.8315   8.8334   8.8398

          k = 0.0000 0.0000-0.7071 (  7768 PWs)   bands (ev):

    -4.6042  -4.6041  -3.6313  -3.6313  -3.6306  -3.6142  -1.3380  -1.3294
    -1.3256  -1.3168   0.8529   0.8538   0.8674   0.8675   2.4453   2.4499
     2.4503   2.4548   2.5519   2.5570   2.5587   2.5590   2.8562   2.8564
     4.4509   4.4510   4.4510   4.4512   5.0220   5.0220   5.0242   5.0329
     7.4881   7.4881   8.8285   8.8315   8.8348   8.8349

          k = 0.3536-0.7071 0.0000 (  7788 PWs)   bands (ev):

    -4.3591  -4.3550  -4.3527  -4.3443  -2.5428  -2.5395  -2.5350  -2.5248
    -0.2444  -0.2383  -0.2322  -0.2278   2.0579   2.0604   2.0655   2.0674
     2.0699   2.0714   2.0770   2.0821   3.6078   3.6115   3.6133   3.6198
     3.7386   3.7409   3.7472   3.7501   4.9153   4.9232   4.9257   4.9322
     8.8195   8.8220   8.8260   8.8328   9.2416   9.2497

          k = 0.7071 0.0000 0.3536 (  7788 PWs)   bands (ev):

    -4.3593  -4.3560  -4.3532  -4.3425  -2.5430  -2.5375  -2.5314  -2.5302
    -0.2417  -0.2383  -0.2357  -0.2271   2.0595   2.0600   2.0661   2.0670
     2.0700   2.0722   2.0754   2.0816   3.6107   3.6121   3.6142   3.6155
     3.7396   3.7409   3.7471   3.7490   4.9191   4.9193   4.9236   4.9343
     8.8194   8.8252   8.8271   8.8287   9.2422   9.2465

     the Fermi energy is     6.6576 ev

!    total energy              =    -182.70864195 Ry
     estimated scf accuracy    <          9.1E-11 Ry
     smearing contrib. (-TS)   =      -0.00000693 Ry
     internal energy E=F+TS    =    -182.70863501 Ry

     The total energy is F=E-TS. E is the sum of the following terms:
     one-electron contribution =      42.31681917 Ry
     hartree contribution      =       8.69871172 Ry
     xc contribution           =     -98.63149644 Ry
     ewald contribution        =    -135.09266946 Ry

     convergence has been achieved in  10 iterations

     Forces acting on atoms (cartesian axes, Ry/au):

     atom    1 type  1   force =     0.00138856    0.00652685    0.00093464
     atom    2 type  1   force =    -0.00652693   -0.00138876   -0.00093502
     atom    3 type  1   force =     0.00141342   -0.00115316   -0.00117349
     atom    4 type  1   force =     0.00065083   -0.00142622   -0.00099251
     atom    5 type  1   force =     0.00142647   -0.00065127    0.00099284
     atom    6 type  1   force =     0.00115327   -0.00141398    0.00117375
     atom    7 type  1   force =     0.00015329   -0.00013454   -0.00005031
     atom    8 type  1   force =     0.00013416   -0.00015342    0.00005076
     atom    9 type  1   force =     0.00122218    0.00080881   -0.00099385
     atom   10 type  1   force =    -0.00080881   -0.00122197    0.00099323
     atom   11 type  1   force =    -0.00005035    0.00029341    0.00004991
     atom   12 type  1   force =     0.00023414    0.00005061   -0.00015363
     atom   13 type  1   force =    -0.00005014   -0.00023455    0.00015357
     atom   14 type  1   force =    -0.00029269    0.00005023   -0.00005001
     atom   15 type  1   force =    -0.00004971   -0.00000194    0.00004994
     atom   16 type  1   force =     0.00000230    0.00004990   -0.00004981

     Total force =     0.010668     Total SCF correction =     0.000018

     Writing output data file ./results/fc3_disp.save/

     init_run     :     59.48s CPU      8.42s WALL (       1 calls)
     electrons    :   2781.02s CPU    262.07s WALL (       1 calls)
     forces       :     41.07s CPU      3.59s WALL (       1 calls)

     Called by init_run:
     wfcinit      :     58.31s CPU      7.44s WALL (       1 calls)
     potinit      :      0.27s CPU      0.32s WALL (       1 calls)
     hinit0       :      0.18s CPU      0.19s WALL (       1 calls)

     Called by electrons:
     c_bands      :   2234.08s CPU    215.94s WALL (      11 calls)
     sum_band     :    538.02s CPU     39.30s WALL (      11 calls)
     v_of_rho     :      2.45s CPU      2.71s WALL (      11 calls)
     newd         :      6.54s CPU      4.20s WALL (      11 calls)
     mix_rho      :      0.36s CPU      0.36s WALL (      11 calls)

     Called by c_bands:
     init_us_2    :    128.82s CPU      8.47s WALL (     864 calls)
     cegterg      :   1791.97s CPU    163.14s WALL (     396 calls)

     Called by *egterg:
     cdiaghg      :     76.00s CPU      4.98s WALL (    2344 calls)
     h_psi        :   1364.72s CPU    138.13s WALL (    2416 calls)
     s_psi        :     99.49s CPU      6.63s WALL (    2416 calls)
     g_psi        :     46.63s CPU      3.06s WALL (    1984 calls)

     Called by h_psi:
     h_psi:calbec :    202.36s CPU     14.27s WALL (    2416 calls)
     vloc_psi     :   1049.72s CPU    116.23s WALL (    2416 calls)
     add_vuspsi   :     98.94s CPU      6.46s WALL (    2416 calls)

     General routines
     calbec       :    294.00s CPU     20.72s WALL (    2956 calls)
     fft          :      3.08s CPU      2.62s WALL (     153 calls)
     ffts         :      0.41s CPU      0.04s WALL (      22 calls)
     fftw         :   1210.44s CPU    121.12s WALL (  107434 calls)
     interpolate  :      0.22s CPU      0.22s WALL (      11 calls)

     Parallel routines

     PWSCF        :  48m 1.66s CPU   4m34.26s WALL


   This run was terminated on:  17:11:54  25Mar2026            

=------------------------------------------------------------------------------=
   JOB DONE.
=------------------------------------------------------------------------------=
