
     Program PWSCF v.6.7MaX starts on 25Mar2026 at 19:10:30 

     This program is part of the open-source Quantum ESPRESSO suite
     for quantum simulation of materials; please cite
         "P. Giannozzi et al., J. Phys.:Condens. Matter 21 395502 (2009);
         "P. Giannozzi et al., J. Phys.:Condens. Matter 29 465901 (2017);
          URL http://www.quantum-espresso.org", 
     in publications or presentations arising from this work. More details at
     http://www.quantum-espresso.org/quote

     Parallel version (MPI), running on     1 processors

     MPI processes distributed on     1 nodes
     Reading input from /home/paul/Documents/ETH/master/quatrex/phonon/input_calc/fc3_si/DISP.supercell_template.in.40

     Current dimensions of program PWSCF are:
     Max number of different atomic species (ntypx) = 10
     Max number of k-points (npk) =  40000
     Max angular momentum in pseudopotentials (lmaxx) =  3

     Subspace diagonalization in iterative solution of the eigenvalue problem:
     a serial algorithm will be used


     G-vector sticks info
     --------------------
     sticks:   dense  smooth     PW     G-vecs:    dense   smooth      PW
     Sum        4117    2065    583               175263    62079    9257



     bravais-lattice index     =            0
     lattice parameter (alat)  =      14.4362  a.u.
     unit-cell volume          =    2127.3654 (a.u.)^3
     number of atoms/cell      =           16
     number of atomic types    =            1
     number of electrons       =        64.00
     number of Kohn-Sham states=           38
     kinetic-energy cutoff     =      36.0000  Ry
     charge density cutoff     =     288.0000  Ry
     scf convergence threshold =      1.0E-10
     mixing beta               =       0.7000
     number of iterations used =            8  plain     mixing
     Exchange-correlation= PBE
                           (   1   4   3   4   0   0   0)

     celldm(1)=  14.436183  celldm(2)=   0.000000  celldm(3)=   0.000000
     celldm(4)=   0.000000  celldm(5)=   0.000000  celldm(6)=   0.000000

     crystal axes: (cart. coord. in units of alat)
               a(1) = (   0.000000   0.707107   0.707107 )  
               a(2) = (   0.707107   0.000000   0.707107 )  
               a(3) = (   0.707107   0.707107   0.000000 )  

     reciprocal axes: (cart. coord. in units 2 pi/alat)
               b(1) = ( -0.707107  0.707107  0.707107 )  
               b(2) = (  0.707107 -0.707107  0.707107 )  
               b(3) = (  0.707107  0.707107 -0.707107 )  


     PseudoPot. # 1 for Si read from file:
     ../scf_disp/pseudo/Si.pbe-n-rrkjus_psl.1.0.0.UPF
     MD5 check sum: fa25574f73a70a4139f2adfbefec430c
     Pseudo is Ultrasoft + core correction, Zval =  4.0
     Generated using &quot;atomic&quot; code by A. Dal Corso  v.6.3
     Using radial grid of 1141 points,  6 beta functions with: 
                l(1) =   0
                l(2) =   0
                l(3) =   1
                l(4) =   1
                l(5) =   2
                l(6) =   2
     Q(r) pseudized with 0 coefficients 


     atomic species   valence    mass     pseudopotential
        Si             4.00    28.08500     Si( 1.00)

     No symmetry found



   Cartesian axes

     site n.     atom                  positions (alat units)
         1           Si  tau(   1) = (  -0.0013090   0.0000000   0.0000000  )
         2           Si  tau(   2) = (   0.1767767   0.1767767   0.1754677  )
         3           Si  tau(   3) = (   0.0000000   0.3535534   0.3535534  )
         4           Si  tau(   4) = (   0.1767767   0.5303301   0.5303301  )
         5           Si  tau(   5) = (   0.3535534   0.0000000   0.3535534  )
         6           Si  tau(   6) = (   0.5303301   0.1767767   0.5303301  )
         7           Si  tau(   7) = (   0.3535534   0.3535534   0.7071068  )
         8           Si  tau(   8) = (   0.5303301   0.5303301   0.8838835  )
         9           Si  tau(   9) = (   0.3535534   0.3535534   0.0000000  )
        10           Si  tau(  10) = (   0.5303301   0.5303301   0.1767767  )
        11           Si  tau(  11) = (   0.3535534   0.7071068   0.3535534  )
        12           Si  tau(  12) = (   0.5303301   0.8838835   0.5303301  )
        13           Si  tau(  13) = (   0.7071068   0.3535534   0.3535534  )
        14           Si  tau(  14) = (   0.8838835   0.5303301   0.5303301  )
        15           Si  tau(  15) = (   0.7071068   0.7071068   0.7071068  )
        16           Si  tau(  16) = (   0.8838835   0.8838835   0.8838835  )

     number of k points=    36  Gaussian smearing, width (Ry)=  0.0100
                       cart. coord. in units 2pi/alat
        k(    1) = (   0.0000000   0.0000000   0.0000000), wk =   0.0312500
        k(    2) = (   0.1767767   0.1767767  -0.1767767), wk =   0.0625000
        k(    3) = (  -0.3535534  -0.3535534   0.3535534), wk =   0.0312500
        k(    4) = (   0.3535534   0.0000000   0.0000000), wk =   0.0625000
        k(    5) = (  -0.1767767  -0.5303301   0.5303301), wk =   0.0625000
        k(    6) = (   0.0000000  -0.3535534   0.3535534), wk =   0.0625000
        k(    7) = (  -0.7071068   0.0000000   0.0000000), wk =   0.0312500
        k(    8) = (  -0.7071068   0.3535534   0.0000000), wk =   0.0625000
        k(    9) = (  -0.1767767  -0.1767767  -0.1767767), wk =   0.0625000
        k(   10) = (  -0.1767767   0.1767767   0.1767767), wk =   0.0625000
        k(   11) = (   0.1767767  -0.1767767   0.1767767), wk =   0.0625000
        k(   12) = (   0.3535534   0.3535534   0.3535534), wk =   0.0312500
        k(   13) = (   0.3535534  -0.3535534  -0.3535534), wk =   0.0312500
        k(   14) = (  -0.3535534   0.3535534  -0.3535534), wk =   0.0312500
        k(   15) = (   0.0000000   0.3535534   0.0000000), wk =   0.0625000
        k(   16) = (   0.0000000   0.0000000   0.3535534), wk =   0.0625000
        k(   17) = (   0.1767767   0.5303301   0.5303301), wk =   0.0625000
        k(   18) = (   0.1767767  -0.5303301  -0.5303301), wk =   0.0625000
        k(   19) = (  -0.1767767   0.5303301  -0.5303301), wk =   0.0625000
        k(   20) = (  -0.5303301  -0.1767767  -0.5303301), wk =   0.0625000
        k(   21) = (   0.5303301   0.1767767  -0.5303301), wk =   0.0625000
        k(   22) = (  -0.5303301   0.1767767   0.5303301), wk =   0.0625000
        k(   23) = (   0.5303301  -0.1767767   0.5303301), wk =   0.0625000
        k(   24) = (   0.5303301   0.5303301  -0.1767767), wk =   0.0625000
        k(   25) = (  -0.5303301   0.5303301   0.1767767), wk =   0.0625000
        k(   26) = (   0.5303301  -0.5303301   0.1767767), wk =   0.0625000
        k(   27) = (  -0.5303301  -0.5303301  -0.1767767), wk =   0.0625000
        k(   28) = (   0.0000000   0.3535534   0.3535534), wk =   0.0625000
        k(   29) = (  -0.3535534   0.0000000  -0.3535534), wk =   0.0625000
        k(   30) = (   0.3535534   0.0000000  -0.3535534), wk =   0.0625000
        k(   31) = (   0.3535534   0.3535534   0.0000000), wk =   0.0625000
        k(   32) = (  -0.3535534   0.3535534   0.0000000), wk =   0.0625000
        k(   33) = (   0.0000000  -0.7071068   0.0000000), wk =   0.0312500
        k(   34) = (   0.0000000   0.0000000  -0.7071068), wk =   0.0312500
        k(   35) = (   0.3535534  -0.7071068   0.0000000), wk =   0.0625000
        k(   36) = (   0.7071068   0.0000000   0.3535534), wk =   0.0625000

     Dense  grid:   175263 G-vectors     FFT dimensions: (  80,  80,  80)

     Smooth grid:    62079 G-vectors     FFT dimensions: (  60,  60,  60)

     Estimated max dynamical RAM per process >     930.95 MB

     Initial potential from superposition of free atoms

     starting charge   63.99105, renormalised to   64.00000
     Starting wfcs are   64 randomized atomic wfcs

     total cpu time spent up to now is       10.2 secs

     Self-consistent Calculation

     iteration #  1     ecut=    36.00 Ry     beta= 0.70
     Davidson diagonalization with overlap
     ethr =  1.00E-02,  avg # of iterations =  3.1

     Threshold (ethr) on eigenvalues was too large:
     Diagonalizing with lowered threshold

     Davidson diagonalization with overlap
     ethr =  6.41E-04,  avg # of iterations =  2.5

     total cpu time spent up to now is       51.4 secs

     total energy              =    -182.68677339 Ry
     estimated scf accuracy    <       0.44683065 Ry

     iteration #  2     ecut=    36.00 Ry     beta= 0.70
     Davidson diagonalization with overlap
     ethr =  6.98E-04,  avg # of iterations =  1.0

     total cpu time spent up to now is       69.8 secs

     total energy              =    -182.70359253 Ry
     estimated scf accuracy    <       0.02124050 Ry

     iteration #  3     ecut=    36.00 Ry     beta= 0.70
     Davidson diagonalization with overlap
     c_bands:  2 eigenvalues not converged
     c_bands:  2 eigenvalues not converged
     c_bands:  2 eigenvalues not converged
     c_bands:  1 eigenvalues not converged
     c_bands:  1 eigenvalues not converged
     c_bands:  1 eigenvalues not converged
     c_bands:  1 eigenvalues not converged
     c_bands:  1 eigenvalues not converged
     c_bands:  1 eigenvalues not converged
     c_bands:  2 eigenvalues not converged
     ethr =  3.32E-05,  avg # of iterations = 13.0

     total cpu time spent up to now is      108.4 secs

     total energy              =    -182.70836683 Ry
     estimated scf accuracy    <       0.00066750 Ry

     iteration #  4     ecut=    36.00 Ry     beta= 0.70
     Davidson diagonalization with overlap
     c_bands:  2 eigenvalues not converged
     c_bands:  1 eigenvalues not converged
     ethr =  1.04E-06,  avg # of iterations =  9.8

     total cpu time spent up to now is      152.7 secs

     total energy              =    -182.70865701 Ry
     estimated scf accuracy    <       0.00005470 Ry

     iteration #  5     ecut=    36.00 Ry     beta= 0.70
     Davidson diagonalization with overlap
     ethr =  8.55E-08,  avg # of iterations =  4.0

     total cpu time spent up to now is      178.4 secs

     total energy              =    -182.70867670 Ry
     estimated scf accuracy    <       0.00000447 Ry

     iteration #  6     ecut=    36.00 Ry     beta= 0.70
     Davidson diagonalization with overlap
     c_bands:  1 eigenvalues not converged
     ethr =  6.98E-09,  avg # of iterations =  5.0

     total cpu time spent up to now is      202.4 secs

     total energy              =    -182.70867843 Ry
     estimated scf accuracy    <       0.00000087 Ry

     iteration #  7     ecut=    36.00 Ry     beta= 0.70
     Davidson diagonalization with overlap
     ethr =  1.36E-09,  avg # of iterations =  3.4

     total cpu time spent up to now is      227.5 secs

     total energy              =    -182.70867851 Ry
     estimated scf accuracy    <       0.00000014 Ry

     iteration #  8     ecut=    36.00 Ry     beta= 0.70
     Davidson diagonalization with overlap
     ethr =  2.18E-10,  avg # of iterations =  4.1

     total cpu time spent up to now is      251.8 secs

     total energy              =    -182.70867854 Ry
     estimated scf accuracy    <          6.1E-09 Ry

     iteration #  9     ecut=    36.00 Ry     beta= 0.70
     Davidson diagonalization with overlap
     c_bands:  1 eigenvalues not converged
     c_bands:  1 eigenvalues not converged
     ethr =  9.56E-12,  avg # of iterations =  6.2

     total cpu time spent up to now is      281.9 secs

     total energy              =    -182.70867855 Ry
     estimated scf accuracy    <          1.4E-09 Ry

     iteration # 10     ecut=    36.00 Ry     beta= 0.70
     Davidson diagonalization with overlap
     ethr =  2.18E-12,  avg # of iterations =  3.1

     total cpu time spent up to now is      303.3 secs

     End of self-consistent calculation

          k = 0.0000 0.0000 0.0000 (  7799 PWs)   bands (ev):

    -5.7007  -3.3356  -3.3327  -3.3255  -3.3226  -1.5074  -1.5037  -1.5024
    -1.4950  -1.4937  -1.4900  -0.6826  -0.6766  -0.6738  -0.6677   3.4720
     3.4739   3.4761   3.4761   3.4782   3.4802   5.1465   5.1500   5.1553
     5.1575   5.1593   5.1615   5.1669   5.1701   6.3639   6.3724   6.3812
     7.0454   7.0465   7.0514   7.0537   7.0586   7.0597

          k = 0.1768 0.1768-0.1768 (  7757 PWs)   bands (ev):

    -5.4937  -3.9802  -3.2491  -3.2429  -3.2392  -2.3675  -2.3624  -2.3582
    -0.5011  -0.4972  -0.4924  -0.4465  -0.4448  -0.4371   0.3615   2.8733
     2.8748   2.8779   3.6471   3.6503   3.6513   4.0581   4.0632   4.0676
     4.7614   4.7871   4.7911   4.7925   5.2696   5.2760   6.0778   6.0852
     7.2392   7.2443   7.2467   8.0950   8.3243   8.3309

          k =-0.3536-0.3536 0.3536 (  7744 PWs)   bands (ev):

    -4.8934  -4.8855  -2.9541  -2.9479  -2.9442  -2.9387  -2.9356  -2.9334
    -0.0635  -0.0573  -0.0562  -0.0544  -0.0495  -0.0406   2.4082   2.4099
     2.7692   2.7741   2.7810   2.7843   2.7864   2.7866   4.1293   4.1298
     4.1306   4.1351   4.1417   4.1438   5.5981   5.5985   5.6021   5.6155
     7.8748   7.8756   7.8761   7.8763   7.8861   7.8904

          k = 0.3536 0.0000 0.0000 (  7715 PWs)   bands (ev):

    -5.4241  -3.4998  -3.4965  -3.4897  -3.4863  -3.2730  -1.4222  -1.4213
    -1.4174  -1.4086  -0.0753  -0.0689  -0.0663  -0.0599   0.6018   2.8937
     2.8961   2.8979   2.9002   3.7225   3.7271   3.8739   3.8788   3.8819
     3.8867   5.0515   5.0801   5.0871   5.0920   5.0986   5.5464   5.5542
     6.9627   7.8867   8.3311   8.3334   8.3378   8.3825

          k =-0.1768-0.5303 0.5303 (  7760 PWs)   bands (ev):

    -4.9488  -4.4320  -3.8840  -3.4544  -3.4477  -2.7308  -2.1838  -2.1770
    -0.6040  -0.5981  -0.3226   0.4894   0.4965   1.4135   1.7077   2.2378
     2.2407   2.3153   2.9989   3.0041   3.1298   3.3605   3.3642   3.6547
     4.0295   4.1315   4.4044   4.4143   4.4604   5.0341   5.1185   5.5931
     7.7119   8.2130   8.5251   8.7564   8.7626   9.1425

          k = 0.0000-0.3536 0.3536 (  7746 PWs)   bands (ev):

    -5.1528  -4.1255  -4.1170  -3.0747  -3.0682  -2.7885  -2.7811  -1.9082
    -0.9068  -0.4762  -0.4692   0.3795   0.3861   1.0377   1.0457   1.9919
     2.8690   2.8759   2.9522   2.9556   3.5589   3.5667   3.6764   3.9121
     4.1762   4.1807   4.5146   4.5203   4.7146   4.7585   4.7694   6.0829
     7.5584   8.3131   8.3187   8.6330   8.6402   9.0100

          k =-0.7071 0.0000 0.0000 (  7768 PWs)   bands (ev):

    -4.6085  -4.5997  -3.6338  -3.6299  -3.6237  -3.6198  -1.3321  -1.3317
    -1.3275  -1.3185   0.8528   0.8599   0.8610   0.8681   2.4474   2.4490
     2.4505   2.4533   2.5535   2.5548   2.5587   2.5600   2.8550   2.8577
     4.4427   4.4484   4.4536   4.4589   5.0166   5.0228   5.0276   5.0343
     7.4860   7.4902   8.8251   8.8315   8.8334   8.8398

          k =-0.7071 0.3536 0.0000 (  7788 PWs)   bands (ev):

    -4.3622  -4.3553  -4.3502  -4.3433  -2.5415  -2.5378  -2.5332  -2.5295
    -0.2450  -0.2390  -0.2323  -0.2263   2.0573   2.0596   2.0664   2.0683
     2.0708   2.0724   2.0762   2.0809   3.6110   3.6117   3.6144   3.6154
     3.7403   3.7410   3.7473   3.7481   4.9121   4.9228   4.9253   4.9362
     8.8198   8.8245   8.8257   8.8304   9.2458   9.2496

          k =-0.1768-0.1768-0.1768 (  7757 PWs)   bands (ev):

    -5.4938  -3.9815  -3.2482  -3.2428  -3.2374  -2.3670  -2.3622  -2.3576
    -0.5029  -0.4981  -0.4936  -0.4513  -0.4451  -0.4381   0.3661   2.8755
     2.8778   2.8801   3.6446   3.6480   3.6513   4.0637   4.0671   4.0704
     4.7653   4.7838   4.7871   4.7920   5.2656   5.2768   6.0722   6.0847
     7.2365   7.2412   7.2460   8.0934   8.3243   8.3330

          k =-0.1768 0.1768 0.1768 (  7757 PWs)   bands (ev):

    -5.4939  -3.9828  -3.2465  -3.2428  -3.2366  -2.3663  -2.3621  -2.3570
    -0.5039  -0.4984  -0.4952  -0.4521  -0.4455  -0.4438   0.3708   2.8778
     2.8808   2.8824   3.6446   3.6457   3.6489   4.0666   4.0710   4.0759
     4.7711   4.7823   4.7837   4.7875   5.2664   5.2729   6.0718   6.0789
     7.2357   7.2382   7.2434   8.0918   8.3259   8.3319

          k = 0.1768-0.1768 0.1768 (  7757 PWs)   bands (ev):

    -5.4938  -3.9815  -3.2482  -3.2428  -3.2374  -2.3670  -2.3623  -2.3575
    -0.5031  -0.4975  -0.4940  -0.4511  -0.4454  -0.4378   0.3662   2.8749
     2.8778   2.8807   3.6457   3.6481   3.6502   4.0613   4.0671   4.0728
     4.7663   4.7845   4.7873   4.7901   5.2656   5.2768   6.0722   6.0847
     7.2371   7.2412   7.2454   8.0934   8.3238   8.3288

          k = 0.3536 0.3536 0.3536 (  7744 PWs)   bands (ev):

    -4.8938  -4.8858  -2.9501  -2.9496  -2.9423  -2.9409  -2.9336  -2.9331
    -0.0685  -0.0621  -0.0563  -0.0560  -0.0502  -0.0439   2.4125   2.4142
     2.7782   2.7810   2.7830   2.7856   2.7876   2.7905   4.1226   4.1307
     4.1309   4.1353   4.1354   4.1434   5.5897   5.6000   5.6030   5.6133
     7.8684   7.8730   7.8761   7.8805   7.8859   8.4505

          k = 0.3536-0.3536-0.3536 (  7744 PWs)   bands (ev):

    -4.8942  -4.8862  -2.9498  -2.9476  -2.9446  -2.9390  -2.9354  -2.9291
    -0.0717  -0.0628  -0.0579  -0.0561  -0.0550  -0.0489   2.4166   2.4183
     2.7820   2.7822   2.7843   2.7877   2.7945   2.8000   4.1223   4.1243
     4.1310   4.1354   4.1362   4.1368   5.5876   5.6010   5.6043   5.6048
     7.8646   7.8688   7.8788   7.8791   7.8795   7.8803

          k =-0.3536 0.3536-0.3536 (  7744 PWs)   bands (ev):

    -4.8927  -4.8869  -2.9533  -2.9463  -2.9452  -2.9380  -2.9369  -2.9299
    -0.0705  -0.0589  -0.0562  -0.0561  -0.0535  -0.0419   2.4096   2.4169
     2.7732   2.7796   2.7828   2.7858   2.7891   2.7957   4.1270   4.1308
     4.1324   4.1337   4.1354   4.1390   5.5896   5.6009   5.6019   5.6135
     7.8693   7.8764   7.8774   7.8777   7.8786   7.8857

          k = 0.0000 0.3536 0.0000 (  7715 PWs)   bands (ev):

    -5.4241  -3.5009  -3.4945  -3.4915  -3.4852  -3.2732  -1.4215  -1.4215
    -1.4132  -1.4132  -0.0752  -0.0681  -0.0671  -0.0602   0.6018   2.8945
     2.8946   2.8993   2.8994   3.7249   3.7249   3.8726   3.8779   3.8827
     3.8878   5.0514   5.0856   5.0887   5.0904   5.0936   5.5501   5.5503
     6.9627   7.8867   8.3303   8.3352   8.3364   8.3829

          k = 0.0000 0.0000 0.3536 (  7715 PWs)   bands (ev):

    -5.4241  -3.4999  -3.4964  -3.4898  -3.4863  -3.2730  -1.4262  -1.4174
    -1.4134  -1.4125  -0.0753  -0.0689  -0.0663  -0.0599   0.6018   2.8937
     2.8961   2.8979   2.9003   3.7225   3.7270   3.8739   3.8788   3.8819
     3.8867   5.0512   5.0806   5.0875   5.0916   5.0982   5.5464   5.5542
     6.9627   7.8867   8.3307   8.3338   8.3398   8.3824

          k = 0.1768 0.5303 0.5303 (  7760 PWs)   bands (ev):

    -4.9489  -4.4330  -3.8842  -3.4526  -3.4457  -2.7345  -2.1823  -2.1754
    -0.6073  -0.6014  -0.3152   0.4827   0.4897   1.4144   1.7139   2.2414
     2.2440   2.3167   2.9987   3.0039   3.1319   3.3587   3.3624   3.6594
     4.0306   4.1264   4.4108   4.4207   4.4544   5.0275   5.1234   5.5842
     7.7078   8.2064   8.5230   8.7565   8.7627   9.1391

          k = 0.1768-0.5303-0.5303 (  7760 PWs)   bands (ev):

    -4.9492  -4.4333  -3.8837  -3.4525  -3.4457  -2.7328  -2.1821  -2.1752
    -0.6080  -0.6021  -0.3197   0.4820   0.4891   1.4101   1.7171   2.2428
     2.2463   2.3200   3.0015   3.0058   3.1373   3.3573   3.3613   3.6642
     4.0273   4.1262   4.4098   4.4178   4.4540   5.0281   5.1164   5.5851
     7.7072   8.2062   8.5229   8.7530   8.7592   9.1381

          k =-0.1768 0.5303-0.5303 (  7760 PWs)   bands (ev):

    -4.9491  -4.4324  -3.8835  -3.4543  -3.4476  -2.7291  -2.1837  -2.1767
    -0.6047  -0.5988  -0.3271   0.4888   0.4960   1.4093   1.7108   2.2392
     2.2430   2.3183   3.0019   3.0061   3.1352   3.3591   3.3632   3.6595
     4.0262   4.1313   4.4034   4.4112   4.4599   5.0347   5.1117   5.5940
     7.7113   8.2127   8.5251   8.7531   8.7592   9.1415

          k =-0.5303-0.1768-0.5303 (  7760 PWs)   bands (ev):

    -4.9490  -4.4327  -3.8839  -3.4509  -3.4493  -2.7318  -2.1825  -2.1765
    -0.6081  -0.5980  -0.3212   0.4859   0.4926   1.4118   1.7124   2.2408
     2.2430   2.3176   2.9998   3.0052   3.1337   3.3574   3.3641   3.6595
     4.0282   4.1291   4.4112   4.4120   4.4573   5.0310   5.1177   5.5890
     7.7096   8.2096   8.5239   8.7550   8.7605   9.1401

          k = 0.5303 0.1768-0.5303 (  7760 PWs)   bands (ev):

    -4.9487  -4.4323  -3.8844  -3.4501  -3.4501  -2.7335  -2.1797  -2.1796
    -0.6024  -0.6023  -0.3167   0.4898   0.4899   1.4161   1.7092   2.2398
     2.2401   2.3144   3.0000   3.0002   3.1284   3.3620   3.3621   3.6547
     4.0316   4.1292   4.4136   4.4136   4.4576   5.0306   5.1243   5.5881
     7.7102   8.2098   8.5241   8.7611   8.7612   9.1412

          k =-0.5303 0.1768 0.5303 (  7760 PWs)   bands (ev):

    -4.9493  -4.4331  -3.8833  -3.4501  -3.4500  -2.7301  -2.1793  -2.1792
    -0.6038  -0.6037  -0.3257   0.4886   0.4887   1.4076   1.7157   2.2437
     2.2439   2.3205   3.0049   3.0051   3.1391   3.3595   3.3596   3.6643
     4.0251   4.1286   4.4095   4.4096   4.4569   5.0317   5.1106   5.5899
     7.7091   8.2094   8.5239   8.7543   8.7545   9.1393

          k = 0.5303-0.1768 0.5303 (  7760 PWs)   bands (ev):

    -4.9490  -4.4327  -3.8839  -3.4509  -3.4493  -2.7318  -2.1825  -2.1765
    -0.6081  -0.5980  -0.3212   0.4859   0.4926   1.4118   1.7124   2.2407
     2.2429   2.3175   2.9999   3.0053   3.1338   3.3574   3.3641   3.6595
     4.0284   4.1290   4.4111   4.4119   4.4573   5.0310   5.1176   5.5891
     7.7096   8.2096   8.5240   8.7550   8.7606   9.1403

          k = 0.5303 0.5303-0.1768 (  7760 PWs)   bands (ev):

    -4.9488  -4.4321  -3.8840  -3.4544  -3.4476  -2.7309  -2.1838  -2.1770
    -0.6040  -0.5981  -0.3226   0.4894   0.4965   1.4136   1.7077   2.2373
     2.2412   2.3152   2.9993   3.0036   3.1298   3.3603   3.3645   3.6547
     4.0295   4.1315   4.4055   4.4132   4.4603   5.0341   5.1185   5.5932
     7.7119   8.2129   8.5252   8.7565   8.7625   9.1425

          k =-0.5303 0.5303 0.1768 (  7760 PWs)   bands (ev):

    -4.9492  -4.4333  -3.8837  -3.4526  -3.4457  -2.7327  -2.1821  -2.1752
    -0.6081  -0.6020  -0.3197   0.4821   0.4891   1.4101   1.7171   2.2434
     2.2456   2.3200   3.0010   3.0063   3.1373   3.3575   3.3611   3.6642
     4.0273   4.1262   4.4088   4.4187   4.4541   5.0280   5.1165   5.5850
     7.7072   8.2063   8.5229   8.7529   8.7593   9.1380

          k = 0.5303-0.5303 0.1768 (  7760 PWs)   bands (ev):

    -4.9489  -4.4330  -3.8842  -3.4526  -3.4457  -2.7345  -2.1823  -2.1754
    -0.6073  -0.6014  -0.3152   0.4827   0.4897   1.4144   1.7138   2.2408
     2.2443   2.3170   2.9991   3.0035   3.1319   3.3585   3.3626   3.6594
     4.0305   4.1265   4.4119   4.4197   4.4544   5.0276   5.1234   5.5842
     7.7079   8.2064   8.5230   8.7565   8.7626   9.1390

          k =-0.5303-0.5303-0.1768 (  7760 PWs)   bands (ev):

    -4.9491  -4.4324  -3.8834  -3.4544  -3.4476  -2.7291  -2.1836  -2.1768
    -0.6048  -0.5988  -0.3271   0.4888   0.4959   1.4093   1.7109   2.2400
     2.2425   2.3180   3.0013   3.0066   3.1351   3.3593   3.3630   3.6595
     4.0263   4.1312   4.4023   4.4123   4.4599   5.0347   5.1117   5.5940
     7.7113   8.2127   8.5251   8.7529   8.7593   9.1416

          k = 0.0000 0.3536 0.3536 (  7746 PWs)   bands (ev):

    -5.1532  -4.1262  -4.1177  -3.0733  -3.0666  -2.7860  -2.7787  -1.9145
    -0.8988  -0.4822  -0.4751   0.3741   0.3805   1.0409   1.0489   1.9952
     2.8756   2.8826   2.9525   2.9560   3.5636   3.5713   3.6851   3.9072
     4.1726   4.1771   4.5186   4.5245   4.7131   4.7522   4.7631   6.0721
     7.5522   8.3112   8.3168   8.6284   8.6356   9.0135

          k =-0.3536 0.0000-0.3536 (  7746 PWs)   bands (ev):

    -5.1530  -4.1216  -4.1216  -3.0709  -3.0706  -2.7866  -2.7804  -1.9114
    -0.9029  -0.4820  -0.4692   0.3800   0.3801   1.0433   1.0433   1.9936
     2.8751   2.8762   2.9540   2.9544   3.5650   3.5651   3.6807   3.9098
     4.1723   4.1807   4.5194   4.5195   4.7137   4.7608   4.7614   6.0775
     7.5553   8.3149   8.3150   8.6342   8.6343   9.0119

          k = 0.3536 0.0000-0.3536 (  7746 PWs)   bands (ev):

    -5.1530  -4.1225  -4.1206  -3.0708  -3.0708  -2.7835  -2.7835  -1.9114
    -0.9029  -0.4756  -0.4756   0.3800   0.3800   1.0383   1.0483   1.9936
     2.8755   2.8755   2.9543   2.9543   3.5651   3.5651   3.6806   3.9097
     4.1765   4.1767   4.5140   4.5249   4.7144   4.7598   4.7616   6.0774
     7.5553   8.3149   8.3150   8.6336   8.6350   9.0116

          k = 0.3536 0.3536 0.0000 (  7746 PWs)   bands (ev):

    -5.1528  -4.1255  -4.1170  -3.0748  -3.0681  -2.7884  -2.7812  -1.9082
    -0.9068  -0.4762  -0.4691   0.3795   0.3861   1.0377   1.0457   1.9919
     2.8691   2.8761   2.9521   2.9555   3.5590   3.5667   3.6763   3.9121
     4.1762   4.1807   4.5145   4.5203   4.7146   4.7589   4.7691   6.0829
     7.5584   8.3131   8.3188   8.6329   8.6402   9.0093

          k =-0.3536 0.3536 0.0000 (  7746 PWs)   bands (ev):

    -5.1532  -4.1262  -4.1177  -3.0734  -3.0665  -2.7859  -2.7787  -1.9145
    -0.8988  -0.4822  -0.4750   0.3741   0.3805   1.0409   1.0489   1.9952
     2.8755   2.8825   2.9526   2.9561   3.5636   3.5712   3.6852   3.9072
     4.1726   4.1771   4.5186   4.5245   4.7130   4.7526   4.7628   6.0721
     7.5522   8.3111   8.3169   8.6283   8.6357   9.0106

          k = 0.0000-0.7071 0.0000 (  7768 PWs)   bands (ev):

    -4.6041  -4.6041  -3.6351  -3.6268  -3.6268  -3.6186  -1.3318  -1.3317
    -1.3231  -1.3231   0.8599   0.8603   0.8604   0.8609   2.4472   2.4472
     2.4524   2.4525   2.5542   2.5567   2.5571   2.5594   2.8564   2.8565
     4.4509   4.4510   4.4511   4.4511   5.0210   5.0252   5.0253   5.0296
     7.4881   7.4882   8.8310   8.8325   8.8325   8.8339

          k = 0.0000 0.0000-0.7071 (  7768 PWs)   bands (ev):

    -4.6085  -4.5998  -3.6338  -3.6300  -3.6237  -3.6198  -1.3363  -1.3275
    -1.3231  -1.3228   0.8528   0.8599   0.8609   0.8681   2.4465   2.4496
     2.4513   2.4526   2.5536   2.5547   2.5588   2.5599   2.8549   2.8579
     4.4429   4.4484   4.4536   4.4588   5.0166   5.0228   5.0276   5.0343
     7.4860   7.4902   8.8251   8.8315   8.8335   8.8398

          k = 0.3536-0.7071 0.0000 (  7788 PWs)   bands (ev):

    -4.3604  -4.3561  -4.3497  -4.3447  -2.5442  -2.5365  -2.5321  -2.5292
    -0.2426  -0.2359  -0.2325  -0.2317   2.0557   2.0597   2.0656   2.0692
     2.0698   2.0717   2.0772   2.0830   3.6059   3.6123   3.6151   3.6188
     3.7385   3.7426   3.7462   3.7499   4.9167   4.9237   4.9256   4.9304
     8.8201   8.8232   8.8273   8.8300   9.2410   9.2477

          k = 0.7071 0.0000 0.3536 (  7788 PWs)   bands (ev):

    -4.3608  -4.3557  -4.3493  -4.3451  -2.5417  -2.5389  -2.5345  -2.5268
    -0.2396  -0.2389  -0.2354  -0.2287   2.0547   2.0614   2.0659   2.0668
     2.0701   2.0723   2.0783   2.0821   3.6075   3.6106   3.6139   3.6201
     3.7389   3.7422   3.7459   3.7501   4.9180   4.9225   4.9244   4.9316
     8.8203   8.8231   8.8271   8.8301   9.2408   9.2475

     the Fermi energy is     6.6576 ev

!    total energy              =    -182.70867855 Ry
     estimated scf accuracy    <          2.0E-11 Ry
     smearing contrib. (-TS)   =      -0.00000693 Ry
     internal energy E=F+TS    =    -182.70867162 Ry

     The total energy is F=E-TS. E is the sum of the following terms:
     one-electron contribution =      42.31717111 Ry
     hartree contribution      =       8.69854577 Ry
     xc contribution           =     -98.63145524 Ry
     ewald contribution        =    -135.09293325 Ry

     convergence has been achieved in  10 iterations

     Forces acting on atoms (cartesian axes, Ry/au):

     atom    1 type  1   force =     0.00461354   -0.00095859   -0.00140090
     atom    2 type  1   force =    -0.00143791   -0.00100394    0.00458860
     atom    3 type  1   force =     0.00131093   -0.00096819   -0.00141386
     atom    4 type  1   force =    -0.00141364    0.00076430    0.00078493
     atom    5 type  1   force =    -0.00115334    0.00097003   -0.00161670
     atom    6 type  1   force =    -0.00162926    0.00099211   -0.00117769
     atom    7 type  1   force =    -0.00013459    0.00025334    0.00005005
     atom    8 type  1   force =     0.00004973   -0.00005000    0.00039235
     atom    9 type  1   force =     0.00080896    0.00079083   -0.00142533
     atom   10 type  1   force =    -0.00142478   -0.00099419    0.00133595
     atom   11 type  1   force =    -0.00023460    0.00004984    0.00025330
     atom   12 type  1   force =     0.00025333    0.00005054   -0.00023398
     atom   13 type  1   force =     0.00039288   -0.00005011    0.00004957
     atom   14 type  1   force =     0.00005057    0.00025307   -0.00013493
     atom   15 type  1   force =    -0.00010172   -0.00004962    0.00005032
     atom   16 type  1   force =     0.00004989   -0.00004943   -0.00010168

     Total force =     0.008657     Total SCF correction =     0.000007

     Writing output data file ./results/fc3_disp.save/

     init_run     :     81.41s CPU     10.19s WALL (       1 calls)
     electrons    :   3210.74s CPU    293.02s WALL (       1 calls)
     forces       :     34.48s CPU      3.03s WALL (       1 calls)

     Called by init_run:
     wfcinit      :     80.26s CPU      9.22s WALL (       1 calls)
     potinit      :      0.27s CPU      0.32s WALL (       1 calls)
     hinit0       :      0.19s CPU      0.20s WALL (       1 calls)

     Called by electrons:
     c_bands      :   2599.26s CPU    242.18s WALL (      11 calls)
     sum_band     :    602.20s CPU     43.85s WALL (      11 calls)
     v_of_rho     :      2.45s CPU      2.72s WALL (      11 calls)
     newd         :      6.87s CPU      4.33s WALL (      11 calls)
     mix_rho      :      0.35s CPU      0.36s WALL (      11 calls)

     Called by c_bands:
     init_us_2    :    129.98s CPU      8.51s WALL (     864 calls)
     cegterg      :   2156.16s CPU    189.21s WALL (     396 calls)

     Called by *egterg:
     cdiaghg      :     96.51s CPU      6.32s WALL (    2351 calls)
     h_psi        :   1673.01s CPU    160.61s WALL (    2423 calls)
     s_psi        :    120.05s CPU      8.02s WALL (    2423 calls)
     g_psi        :     46.47s CPU      3.05s WALL (    1991 calls)

     Called by h_psi:
     h_psi:calbec :    490.74s CPU     34.45s WALL (    2423 calls)
     vloc_psi     :   1053.73s CPU    117.34s WALL (    2423 calls)
     add_vuspsi   :    115.62s CPU      7.65s WALL (    2423 calls)

     General routines
     calbec       :    638.36s CPU     44.75s WALL (    2963 calls)
     fft          :      3.09s CPU      2.61s WALL (     153 calls)
     ffts         :      0.40s CPU      0.04s WALL (      22 calls)
     fftw         :   1215.05s CPU    122.26s WALL (  107544 calls)
     interpolate  :      0.22s CPU      0.22s WALL (      11 calls)

     Parallel routines

     PWSCF        :  55m26.73s CPU   5m 6.41s WALL


   This run was terminated on:  19:15:37  25Mar2026            

=------------------------------------------------------------------------------=
   JOB DONE.
=------------------------------------------------------------------------------=
