
     Program PWSCF v.6.7MaX starts on 25Mar2026 at 18:38:19 

     This program is part of the open-source Quantum ESPRESSO suite
     for quantum simulation of materials; please cite
         "P. Giannozzi et al., J. Phys.:Condens. Matter 21 395502 (2009);
         "P. Giannozzi et al., J. Phys.:Condens. Matter 29 465901 (2017);
          URL http://www.quantum-espresso.org", 
     in publications or presentations arising from this work. More details at
     http://www.quantum-espresso.org/quote

     Parallel version (MPI), running on     1 processors

     MPI processes distributed on     1 nodes
     Reading input from /home/paul/Documents/ETH/master/quatrex/phonon/input_calc/fc3_si/DISP.supercell_template.in.31

     Current dimensions of program PWSCF are:
     Max number of different atomic species (ntypx) = 10
     Max number of k-points (npk) =  40000
     Max angular momentum in pseudopotentials (lmaxx) =  3

     Subspace diagonalization in iterative solution of the eigenvalue problem:
     a serial algorithm will be used


     G-vector sticks info
     --------------------
     sticks:   dense  smooth     PW     G-vecs:    dense   smooth      PW
     Sum        4117    2065    583               175263    62079    9257



     bravais-lattice index     =            0
     lattice parameter (alat)  =      14.4362  a.u.
     unit-cell volume          =    2127.3654 (a.u.)^3
     number of atoms/cell      =           16
     number of atomic types    =            1
     number of electrons       =        64.00
     number of Kohn-Sham states=           38
     kinetic-energy cutoff     =      36.0000  Ry
     charge density cutoff     =     288.0000  Ry
     scf convergence threshold =      1.0E-10
     mixing beta               =       0.7000
     number of iterations used =            8  plain     mixing
     Exchange-correlation= PBE
                           (   1   4   3   4   0   0   0)

     celldm(1)=  14.436183  celldm(2)=   0.000000  celldm(3)=   0.000000
     celldm(4)=   0.000000  celldm(5)=   0.000000  celldm(6)=   0.000000

     crystal axes: (cart. coord. in units of alat)
               a(1) = (   0.000000   0.707107   0.707107 )  
               a(2) = (   0.707107   0.000000   0.707107 )  
               a(3) = (   0.707107   0.707107   0.000000 )  

     reciprocal axes: (cart. coord. in units 2 pi/alat)
               b(1) = ( -0.707107  0.707107  0.707107 )  
               b(2) = (  0.707107 -0.707107  0.707107 )  
               b(3) = (  0.707107  0.707107 -0.707107 )  


     PseudoPot. # 1 for Si read from file:
     ../scf_disp/pseudo/Si.pbe-n-rrkjus_psl.1.0.0.UPF
     MD5 check sum: fa25574f73a70a4139f2adfbefec430c
     Pseudo is Ultrasoft + core correction, Zval =  4.0
     Generated using &quot;atomic&quot; code by A. Dal Corso  v.6.3
     Using radial grid of 1141 points,  6 beta functions with: 
                l(1) =   0
                l(2) =   0
                l(3) =   1
                l(4) =   1
                l(5) =   2
                l(6) =   2
     Q(r) pseudized with 0 coefficients 


     atomic species   valence    mass     pseudopotential
        Si             4.00    28.08500     Si( 1.00)

     No symmetry found



   Cartesian axes

     site n.     atom                  positions (alat units)
         1           Si  tau(   1) = (   0.0000000   0.0000000   0.0013090  )
         2           Si  tau(   2) = (   0.1767767   0.1767767   0.1767767  )
         3           Si  tau(   3) = (   0.0013090   0.3535534   0.3535534  )
         4           Si  tau(   4) = (   0.1767767   0.5303301   0.5303301  )
         5           Si  tau(   5) = (   0.3535534   0.0000000   0.3535534  )
         6           Si  tau(   6) = (   0.5303301   0.1767767   0.5303301  )
         7           Si  tau(   7) = (   0.3535534   0.3535534   0.7071068  )
         8           Si  tau(   8) = (   0.5303301   0.5303301   0.8838835  )
         9           Si  tau(   9) = (   0.3535534   0.3535534   0.0000000  )
        10           Si  tau(  10) = (   0.5303301   0.5303301   0.1767767  )
        11           Si  tau(  11) = (   0.3535534   0.7071068   0.3535534  )
        12           Si  tau(  12) = (   0.5303301   0.8838835   0.5303301  )
        13           Si  tau(  13) = (   0.7071068   0.3535534   0.3535534  )
        14           Si  tau(  14) = (   0.8838835   0.5303301   0.5303301  )
        15           Si  tau(  15) = (   0.7071068   0.7071068   0.7071068  )
        16           Si  tau(  16) = (   0.8838835   0.8838835   0.8838835  )

     number of k points=    36  Gaussian smearing, width (Ry)=  0.0100
                       cart. coord. in units 2pi/alat
        k(    1) = (   0.0000000   0.0000000   0.0000000), wk =   0.0312500
        k(    2) = (   0.1767767   0.1767767  -0.1767767), wk =   0.0625000
        k(    3) = (  -0.3535534  -0.3535534   0.3535534), wk =   0.0312500
        k(    4) = (   0.3535534   0.0000000   0.0000000), wk =   0.0625000
        k(    5) = (  -0.1767767  -0.5303301   0.5303301), wk =   0.0625000
        k(    6) = (   0.0000000  -0.3535534   0.3535534), wk =   0.0625000
        k(    7) = (  -0.7071068   0.0000000   0.0000000), wk =   0.0312500
        k(    8) = (  -0.7071068   0.3535534   0.0000000), wk =   0.0625000
        k(    9) = (  -0.1767767  -0.1767767  -0.1767767), wk =   0.0625000
        k(   10) = (  -0.1767767   0.1767767   0.1767767), wk =   0.0625000
        k(   11) = (   0.1767767  -0.1767767   0.1767767), wk =   0.0625000
        k(   12) = (   0.3535534   0.3535534   0.3535534), wk =   0.0312500
        k(   13) = (   0.3535534  -0.3535534  -0.3535534), wk =   0.0312500
        k(   14) = (  -0.3535534   0.3535534  -0.3535534), wk =   0.0312500
        k(   15) = (   0.0000000   0.3535534   0.0000000), wk =   0.0625000
        k(   16) = (   0.0000000   0.0000000   0.3535534), wk =   0.0625000
        k(   17) = (   0.1767767   0.5303301   0.5303301), wk =   0.0625000
        k(   18) = (   0.1767767  -0.5303301  -0.5303301), wk =   0.0625000
        k(   19) = (  -0.1767767   0.5303301  -0.5303301), wk =   0.0625000
        k(   20) = (  -0.5303301  -0.1767767  -0.5303301), wk =   0.0625000
        k(   21) = (   0.5303301   0.1767767  -0.5303301), wk =   0.0625000
        k(   22) = (  -0.5303301   0.1767767   0.5303301), wk =   0.0625000
        k(   23) = (   0.5303301  -0.1767767   0.5303301), wk =   0.0625000
        k(   24) = (   0.5303301   0.5303301  -0.1767767), wk =   0.0625000
        k(   25) = (  -0.5303301   0.5303301   0.1767767), wk =   0.0625000
        k(   26) = (   0.5303301  -0.5303301   0.1767767), wk =   0.0625000
        k(   27) = (  -0.5303301  -0.5303301  -0.1767767), wk =   0.0625000
        k(   28) = (   0.0000000   0.3535534   0.3535534), wk =   0.0625000
        k(   29) = (  -0.3535534   0.0000000  -0.3535534), wk =   0.0625000
        k(   30) = (   0.3535534   0.0000000  -0.3535534), wk =   0.0625000
        k(   31) = (   0.3535534   0.3535534   0.0000000), wk =   0.0625000
        k(   32) = (  -0.3535534   0.3535534   0.0000000), wk =   0.0625000
        k(   33) = (   0.0000000  -0.7071068   0.0000000), wk =   0.0312500
        k(   34) = (   0.0000000   0.0000000  -0.7071068), wk =   0.0312500
        k(   35) = (   0.3535534  -0.7071068   0.0000000), wk =   0.0625000
        k(   36) = (   0.7071068   0.0000000   0.3535534), wk =   0.0625000

     Dense  grid:   175263 G-vectors     FFT dimensions: (  80,  80,  80)

     Smooth grid:    62079 G-vectors     FFT dimensions: (  60,  60,  60)

     Estimated max dynamical RAM per process >     930.95 MB

     Initial potential from superposition of free atoms

     starting charge   63.99105, renormalised to   64.00000
     Starting wfcs are   64 randomized atomic wfcs

     total cpu time spent up to now is        9.0 secs

     Self-consistent Calculation

     iteration #  1     ecut=    36.00 Ry     beta= 0.70
     Davidson diagonalization with overlap
     ethr =  1.00E-02,  avg # of iterations =  3.0

     Threshold (ethr) on eigenvalues was too large:
     Diagonalizing with lowered threshold

     Davidson diagonalization with overlap
     ethr =  6.42E-04,  avg # of iterations =  2.5

     total cpu time spent up to now is       54.9 secs

     total energy              =    -182.68674987 Ry
     estimated scf accuracy    <       0.44679029 Ry

     iteration #  2     ecut=    36.00 Ry     beta= 0.70
     Davidson diagonalization with overlap
     ethr =  6.98E-04,  avg # of iterations =  1.0

     total cpu time spent up to now is       74.4 secs

     total energy              =    -182.70357443 Ry
     estimated scf accuracy    <       0.02124175 Ry

     iteration #  3     ecut=    36.00 Ry     beta= 0.70
     Davidson diagonalization with overlap
     c_bands:  3 eigenvalues not converged
     c_bands:  3 eigenvalues not converged
     c_bands:  1 eigenvalues not converged
     c_bands:  1 eigenvalues not converged
     c_bands:  1 eigenvalues not converged
     c_bands:  1 eigenvalues not converged
     c_bands:  1 eigenvalues not converged
     c_bands:  1 eigenvalues not converged
     c_bands:  1 eigenvalues not converged
     c_bands:  1 eigenvalues not converged
     c_bands:  1 eigenvalues not converged
     ethr =  3.32E-05,  avg # of iterations = 13.2

     total cpu time spent up to now is      108.5 secs

     total energy              =    -182.70834362 Ry
     estimated scf accuracy    <       0.00066821 Ry

     iteration #  4     ecut=    36.00 Ry     beta= 0.70
     Davidson diagonalization with overlap
     c_bands:  2 eigenvalues not converged
     c_bands:  1 eigenvalues not converged
     ethr =  1.04E-06,  avg # of iterations = 10.1

     total cpu time spent up to now is      140.2 secs

     total energy              =    -182.70863595 Ry
     estimated scf accuracy    <       0.00007380 Ry

     iteration #  5     ecut=    36.00 Ry     beta= 0.70
     Davidson diagonalization with overlap
     ethr =  1.15E-07,  avg # of iterations =  4.4

     total cpu time spent up to now is      169.4 secs

     total energy              =    -182.70865776 Ry
     estimated scf accuracy    <       0.00000650 Ry

     iteration #  6     ecut=    36.00 Ry     beta= 0.70
     Davidson diagonalization with overlap
     ethr =  1.02E-08,  avg # of iterations =  4.9

     total cpu time spent up to now is      196.6 secs

     total energy              =    -182.70865986 Ry
     estimated scf accuracy    <       0.00000088 Ry

     iteration #  7     ecut=    36.00 Ry     beta= 0.70
     Davidson diagonalization with overlap
     c_bands:  1 eigenvalues not converged
     ethr =  1.38E-09,  avg # of iterations =  3.6

     total cpu time spent up to now is      219.6 secs

     total energy              =    -182.70866000 Ry
     estimated scf accuracy    <       0.00000009 Ry

     iteration #  8     ecut=    36.00 Ry     beta= 0.70
     Davidson diagonalization with overlap
     ethr =  1.39E-10,  avg # of iterations =  4.5

     total cpu time spent up to now is      244.1 secs

     total energy              =    -182.70866002 Ry
     estimated scf accuracy    <          9.5E-09 Ry

     iteration #  9     ecut=    36.00 Ry     beta= 0.70
     Davidson diagonalization with overlap
     ethr =  1.48E-11,  avg # of iterations =  4.2

     total cpu time spent up to now is      268.1 secs

     total energy              =    -182.70866003 Ry
     estimated scf accuracy    <          1.5E-09 Ry

     iteration # 10     ecut=    36.00 Ry     beta= 0.70
     Davidson diagonalization with overlap
     ethr =  2.42E-12,  avg # of iterations =  3.8

     total cpu time spent up to now is      290.5 secs

     End of self-consistent calculation

          k = 0.0000 0.0000 0.0000 (  7799 PWs)   bands (ev):

    -5.7007  -3.3366  -3.3292  -3.3291  -3.3217  -1.5084  -1.5072  -1.4987
    -1.4987  -1.4901  -1.4892  -0.6827  -0.6752  -0.6752  -0.6676   3.4724
     3.4724   3.4761   3.4761   3.4797   3.4797   5.1451   5.1504   5.1556
     5.1578   5.1590   5.1612   5.1663   5.1716   6.3639   6.3725   6.3811
     7.0436   7.0486   7.0525   7.0526   7.0564   7.0614

          k = 0.1768 0.1768-0.1768 (  7757 PWs)   bands (ev):

    -5.4938  -3.9815  -3.2483  -3.2428  -3.2374  -2.3670  -2.3623  -2.3575
    -0.5031  -0.4982  -0.4933  -0.4509  -0.4451  -0.4384   0.3662   2.8747
     2.8781   2.8807   3.6451   3.6473   3.6516   4.0622   4.0665   4.0724
     4.7664   4.7829   4.7868   4.7921   5.2657   5.2768   6.0722   6.0847
     7.2371   7.2405   7.2460   8.0934   8.3263   8.3312

          k =-0.3536-0.3536 0.3536 (  7744 PWs)   bands (ev):

    -4.8899  -4.8898  -2.9538  -2.9471  -2.9422  -2.9406  -2.9367  -2.9293
    -0.0703  -0.0628  -0.0557  -0.0527  -0.0510  -0.0445   2.4132   2.4133
     2.7727   2.7805   2.7831   2.7858   2.7885   2.7955   4.1255   4.1311
     4.1333   4.1334   4.1342   4.1409   5.5898   5.6011   5.6018   5.6133
     7.8701   7.8746   7.8766   7.8778   7.8783   7.8875

          k = 0.3536 0.0000 0.0000 (  7715 PWs)   bands (ev):

    -5.4241  -3.5007  -3.4937  -3.4925  -3.4855  -3.2731  -1.4251  -1.4174
    -1.4174  -1.4097  -0.0753  -0.0682  -0.0671  -0.0599   0.6018   2.8937
     2.8961   2.8979   2.9003   3.7225   3.7270   3.8737   3.8794   3.8812
     3.8869   5.0513   5.0804   5.0885   5.0901   5.0989   5.5464   5.5542
     6.9627   7.8867   8.3306   8.3335   8.3389   8.3828

          k =-0.1768-0.5303 0.5303 (  7760 PWs)   bands (ev):

    -4.9489  -4.4330  -3.8842  -3.4526  -3.4458  -2.7345  -2.1823  -2.1754
    -0.6073  -0.6014  -0.3153   0.4827   0.4897   1.4144   1.7139   2.2413
     2.2440   2.3169   2.9986   3.0039   3.1319   3.3587   3.3624   3.6594
     4.0306   4.1265   4.4107   4.4209   4.4544   5.0276   5.1233   5.5841
     7.7078   8.2064   8.5230   8.7564   8.7626   9.1390

          k = 0.0000-0.3536 0.3536 (  7746 PWs)   bands (ev):

    -5.1532  -4.1262  -4.1177  -3.0733  -3.0666  -2.7860  -2.7787  -1.9145
    -0.8989  -0.4822  -0.4750   0.3741   0.3805   1.0409   1.0488   1.9952
     2.8756   2.8824   2.9527   2.9561   3.5636   3.5712   3.6852   3.9072
     4.1726   4.1771   4.5186   4.5245   4.7130   4.7526   4.7627   6.0720
     7.5522   8.3111   8.3168   8.6283   8.6357   9.0151

          k =-0.7071 0.0000 0.0000 (  7768 PWs)   bands (ev):

    -4.6085  -4.5998  -3.6344  -3.6277  -3.6260  -3.6192  -1.3352  -1.3275
    -1.3274  -1.3197   0.8528   0.8599   0.8610   0.8681   2.4470   2.4493
     2.4509   2.4531   2.5530   2.5558   2.5576   2.5604   2.8549   2.8578
     4.4429   4.4484   4.4536   4.4589   5.0163   5.0245   5.0260   5.0345
     7.4860   7.4902   8.8250   8.8319   8.8331   8.8398

          k =-0.7071 0.3536 0.0000 (  7788 PWs)   bands (ev):

    -4.3631  -4.3537  -4.3488  -4.3454  -2.5416  -2.5384  -2.5331  -2.5290
    -0.2451  -0.2371  -0.2318  -0.2286   2.0560   2.0602   2.0663   2.0699
     2.0717   2.0732   2.0759   2.0785   3.6105   3.6123   3.6146   3.6151
     3.7399   3.7412   3.7465   3.7490   4.9123   4.9238   4.9282   4.9321
     8.8212   8.8230   8.8253   8.8310   9.2415   9.2476

          k =-0.1768-0.1768-0.1768 (  7757 PWs)   bands (ev):

    -5.4938  -3.9802  -3.2499  -3.2421  -3.2392  -2.3701  -2.3602  -2.3579
    -0.5052  -0.4943  -0.4916  -0.4470  -0.4442  -0.4367   0.3616   2.8715
     2.8763   2.8781   3.6471   3.6503   3.6513   4.0568   4.0647   4.0674
     4.7614   4.7871   4.7911   4.7924   5.2696   5.2761   6.0779   6.0851
     7.2391   7.2442   7.2468   8.0950   8.3230   8.3264

          k =-0.1768 0.1768 0.1768 (  7757 PWs)   bands (ev):

    -5.4938  -3.9815  -3.2483  -3.2429  -3.2374  -2.3670  -2.3623  -2.3576
    -0.5031  -0.4981  -0.4931  -0.4508  -0.4450  -0.4387   0.3661   2.8750
     2.8776   2.8809   3.6443   3.6488   3.6508   4.0617   4.0676   4.0718
     4.7652   4.7830   4.7886   4.7914   5.2656   5.2768   6.0722   6.0847
     7.2364   7.2419   7.2454   8.0934   8.3241   8.3320

          k = 0.1768-0.1768 0.1768 (  7757 PWs)   bands (ev):

    -5.4939  -3.9828  -3.2464  -3.2436  -3.2359  -2.3667  -2.3644  -2.3544
    -0.5050  -0.5013  -0.4915  -0.4526  -0.4458  -0.4427   0.3708   2.8776
     2.8793   2.8841   3.6446   3.6456   3.6489   4.0668   4.0695   4.0773
     4.7699   4.7819   4.7836   4.7890   5.2664   5.2729   6.0718   6.0790
     7.2356   7.2383   7.2434   8.0918   8.3247   8.3323

          k = 0.3536 0.3536 0.3536 (  7744 PWs)   bands (ev):

    -4.8894  -4.8894  -2.9587  -2.9450  -2.9424  -2.9373  -2.9368  -2.9338
    -0.0687  -0.0577  -0.0537  -0.0526  -0.0488  -0.0400   2.4089   2.4092
     2.7659   2.7777   2.7803   2.7845   2.7865   2.7866   4.1313   4.1319
     4.1327   4.1336   4.1399   4.1409   5.5967   5.5967   5.6104   5.6105
     7.8733   7.8737   7.8808   7.8816   7.8846   7.8852

          k = 0.3536-0.3536-0.3536 (  7744 PWs)   bands (ev):

    -4.8948  -4.8849  -2.9533  -2.9480  -2.9407  -2.9384  -2.9357  -2.9337
    -0.0698  -0.0618  -0.0559  -0.0525  -0.0503  -0.0468   2.4095   2.4172
     2.7757   2.7824   2.7834   2.7858   2.7872   2.7914   4.1220   4.1298
     4.1308   4.1361   4.1366   4.1429   5.5895   5.6000   5.6029   5.6135
     7.8690   7.8719   7.8778   7.8841   7.8864   8.4501

          k =-0.3536 0.3536-0.3536 (  7744 PWs)   bands (ev):

    -4.8952  -4.8853  -2.9516  -2.9478  -2.9421  -2.9394  -2.9353  -2.9293
    -0.0726  -0.0629  -0.0615  -0.0549  -0.0521  -0.0483   2.4138   2.4213
     2.7830   2.7838   2.7853   2.7887   2.7916   2.7981   4.1219   4.1240
     4.1307   4.1354   4.1364   4.1377   5.5874   5.6007   5.6047   5.6049
     7.8644   7.8686   7.8771   7.8792   7.8799   7.8818

          k = 0.0000 0.3536 0.0000 (  7715 PWs)   bands (ev):

    -5.4241  -3.5018  -3.4937  -3.4924  -3.4843  -3.2732  -1.4253  -1.4214
    -1.4133  -1.4094  -0.0760  -0.0702  -0.0651  -0.0593   0.6018   2.8923
     2.8957   2.8982   2.9016   3.7249   3.7249   3.8717   3.8787   3.8818
     3.8888   5.0506   5.0846   5.0895   5.0903   5.0946   5.5501   5.5502
     6.9627   7.8867   8.3292   8.3336   8.3355   8.3829

          k = 0.0000 0.0000 0.3536 (  7715 PWs)   bands (ev):

    -5.4241  -3.5007  -3.4936  -3.4925  -3.4855  -3.2731  -1.4250  -1.4175
    -1.4174  -1.4097  -0.0754  -0.0681  -0.0670  -0.0598   0.6018   2.8937
     2.8961   2.8979   2.9002   3.7225   3.7270   3.8738   3.8794   3.8812
     3.8869   5.0514   5.0798   5.0888   5.0907   5.0985   5.5464   5.5541
     6.9627   7.8867   8.3285   8.3328   8.3360   8.3827

          k = 0.1768 0.5303 0.5303 (  7760 PWs)   bands (ev):

    -4.9488  -4.4321  -3.8840  -3.4544  -3.4476  -2.7309  -2.1838  -2.1770
    -0.6041  -0.5981  -0.3227   0.4894   0.4965   1.4135   1.7077   2.2373
     2.2412   2.3152   2.9993   3.0037   3.1298   3.3603   3.3644   3.6547
     4.0294   4.1316   4.4056   4.4132   4.4602   5.0342   5.1185   5.5931
     7.7119   8.2129   8.5251   8.7565   8.7626   9.1424

          k = 0.1768-0.5303-0.5303 (  7760 PWs)   bands (ev):

    -4.9491  -4.4324  -3.8835  -3.4544  -3.4476  -2.7291  -2.1837  -2.1768
    -0.6048  -0.5988  -0.3271   0.4889   0.4959   1.4093   1.7109   2.2400
     2.2425   2.3180   3.0013   3.0067   3.1351   3.3593   3.3630   3.6595
     4.0262   4.1312   4.4023   4.4122   4.4600   5.0346   5.1117   5.5940
     7.7113   8.2128   8.5250   8.7529   8.7592   9.1416

          k =-0.1768 0.5303-0.5303 (  7760 PWs)   bands (ev):

    -4.9492  -4.4333  -3.8837  -3.4525  -3.4457  -2.7327  -2.1821  -2.1752
    -0.6080  -0.6021  -0.3197   0.4821   0.4891   1.4101   1.7171   2.2428
     2.2465   2.3197   3.0016   3.0059   3.1372   3.3573   3.3613   3.6642
     4.0273   4.1261   4.4098   4.4177   4.4541   5.0280   5.1165   5.5850
     7.7072   8.2063   8.5228   8.7531   8.7593   9.1381

          k =-0.5303-0.1768-0.5303 (  7760 PWs)   bands (ev):

    -4.9487  -4.4324  -3.8844  -3.4545  -3.4458  -2.7336  -2.1820  -2.1774
    -0.6052  -0.5995  -0.3167   0.4839   0.4959   1.4160   1.7092   2.2383
     2.2416   2.3144   2.9974   3.0029   3.1283   3.3605   3.3635   3.6547
     4.0316   4.1293   4.4109   4.4162   4.4576   5.0306   5.1242   5.5882
     7.7102   8.2097   8.5240   8.7574   8.7649   9.1411

          k = 0.5303 0.1768-0.5303 (  7760 PWs)   bands (ev):

    -4.9490  -4.4328  -3.8838  -3.4509  -3.4493  -2.7318  -2.1825  -2.1765
    -0.6081  -0.5980  -0.3212   0.4859   0.4927   1.4118   1.7125   2.2405
     2.2433   2.3174   2.9997   3.0055   3.1337   3.3573   3.3642   3.6595
     4.0284   4.1290   4.4105   4.4126   4.4572   5.0310   5.1176   5.5891
     7.7096   8.2096   8.5240   8.7550   8.7606   9.1402

          k =-0.5303 0.1768 0.5303 (  7760 PWs)   bands (ev):

    -4.9490  -4.4327  -3.8839  -3.4509  -3.4493  -2.7318  -2.1825  -2.1765
    -0.6081  -0.5980  -0.3212   0.4858   0.4926   1.4118   1.7124   2.2405
     2.2433   2.3174   2.9996   3.0054   3.1336   3.3573   3.3642   3.6595
     4.0282   4.1291   4.4103   4.4128   4.4573   5.0310   5.1177   5.5890
     7.7096   8.2096   8.5239   8.7549   8.7605   9.1402

          k = 0.5303-0.1768 0.5303 (  7760 PWs)   bands (ev):

    -4.9493  -4.4331  -3.8833  -3.4544  -3.4457  -2.7301  -2.1817  -2.1769
    -0.6065  -0.6010  -0.3257   0.4826   0.4947   1.4076   1.7156   2.2422
     2.2454   2.3205   3.0021   3.0078   3.1390   3.3580   3.3610   3.6643
     4.0250   4.1287   4.4069   4.4121   4.4570   5.0317   5.1106   5.5899
     7.7090   8.2094   8.5239   8.7506   8.7584   9.1393

          k = 0.5303 0.5303-0.1768 (  7760 PWs)   bands (ev):

    -4.9491  -4.4325  -3.8835  -3.4543  -3.4476  -2.7292  -2.1837  -2.1767
    -0.6048  -0.5988  -0.3271   0.4888   0.4959   1.4093   1.7109   2.2392
     2.2430   2.3183   3.0019   3.0060   3.1352   3.3590   3.3631   3.6595
     4.0262   4.1313   4.4034   4.4112   4.4599   5.0346   5.1117   5.5940
     7.7113   8.2127   8.5250   8.7530   8.7592   9.1415

          k =-0.5303 0.5303 0.1768 (  7760 PWs)   bands (ev):

    -4.9489  -4.4330  -3.8842  -3.4526  -3.4458  -2.7345  -2.1823  -2.1754
    -0.6073  -0.6014  -0.3152   0.4826   0.4897   1.4144   1.7139   2.2409
     2.2446   2.3166   2.9991   3.0035   3.1318   3.3585   3.3626   3.6594
     4.0305   4.1264   4.4119   4.4197   4.4544   5.0275   5.1233   5.5842
     7.7078   8.2064   8.5230   8.7564   8.7625   9.1390

          k = 0.5303-0.5303 0.1768 (  7760 PWs)   bands (ev):

    -4.9492  -4.4333  -3.8836  -3.4526  -3.4458  -2.7327  -2.1820  -2.1752
    -0.6080  -0.6021  -0.3197   0.4821   0.4891   1.4101   1.7171   2.2434
     2.2460   2.3196   3.0011   3.0064   3.1372   3.3575   3.3612   3.6642
     4.0273   4.1261   4.4088   4.4187   4.4541   5.0281   5.1164   5.5851
     7.7072   8.2062   8.5228   8.7529   8.7593   9.1381

          k =-0.5303-0.5303-0.1768 (  7760 PWs)   bands (ev):

    -4.9488  -4.4321  -3.8841  -3.4543  -3.4476  -2.7309  -2.1838  -2.1770
    -0.6040  -0.5981  -0.3226   0.4895   0.4965   1.4136   1.7076   2.2378
     2.2407   2.3153   2.9989   3.0041   3.1298   3.3605   3.3642   3.6547
     4.0295   4.1316   4.4044   4.4143   4.4603   5.0341   5.1186   5.5931
     7.7119   8.2129   8.5251   8.7564   8.7627   9.1425

          k = 0.0000 0.3536 0.3536 (  7746 PWs)   bands (ev):

    -5.1528  -4.1255  -4.1170  -3.0749  -3.0681  -2.7884  -2.7812  -1.9082
    -0.9068  -0.4762  -0.4691   0.3796   0.3860   1.0377   1.0457   1.9919
     2.8689   2.8760   2.9521   2.9557   3.5589   3.5667   3.6763   3.9121
     4.1761   4.1807   4.5145   4.5204   4.7146   4.7585   4.7694   6.0829
     7.5584   8.3131   8.3188   8.6330   8.6402   9.0084

          k =-0.3536 0.0000-0.3536 (  7746 PWs)   bands (ev):

    -5.1530  -4.1225  -4.1207  -3.0754  -3.0661  -2.7836  -2.7834  -1.9114
    -0.9029  -0.4756  -0.4756   0.3736   0.3865   1.0383   1.0483   1.9936
     2.8755   2.8758   2.9527   2.9557   3.5620   3.5682   3.6806   3.9097
     4.1765   4.1767   4.5140   4.5250   4.7136   4.7604   4.7616   6.0774
     7.5553   8.3095   8.3204   8.6336   8.6350   9.4698

          k = 0.3536 0.0000-0.3536 (  7746 PWs)   bands (ev):

    -5.1530  -4.1216  -4.1216  -3.0708  -3.0707  -2.7866  -2.7804  -1.9114
    -0.9029  -0.4820  -0.4692   0.3800   0.3800   1.0433   1.0433   1.9936
     2.8751   2.8762   2.9540   2.9544   3.5650   3.5651   3.6807   3.9097
     4.1723   4.1808   4.5193   4.5195   4.7136   4.7608   4.7614   6.0775
     7.5553   8.3149   8.3150   8.6343   8.6343   9.4693

          k = 0.3536 0.3536 0.0000 (  7746 PWs)   bands (ev):

    -5.1528  -4.1256  -4.1170  -3.0748  -3.0681  -2.7885  -2.7812  -1.9082
    -0.9068  -0.4762  -0.4691   0.3795   0.3860   1.0377   1.0457   1.9919
     2.8689   2.8759   2.9522   2.9557   3.5589   3.5667   3.6763   3.9121
     4.1762   4.1807   4.5146   4.5204   4.7145   4.7589   4.7690   6.0829
     7.5584   8.3131   8.3187   8.6329   8.6403   9.0124

          k =-0.3536 0.3536 0.0000 (  7746 PWs)   bands (ev):

    -5.1532  -4.1262  -4.1176  -3.0734  -3.0666  -2.7858  -2.7788  -1.9145
    -0.8988  -0.4822  -0.4750   0.3741   0.3806   1.0409   1.0488   1.9953
     2.8756   2.8826   2.9525   2.9560   3.5636   3.5713   3.6851   3.9072
     4.1726   4.1771   4.5186   4.5244   4.7131   4.7522   4.7631   6.0721
     7.5522   8.3112   8.3168   8.6283   8.6356   9.0131

          k = 0.0000-0.7071 0.0000 (  7768 PWs)   bands (ev):

    -4.6041  -4.6041  -3.6362  -3.6268  -3.6268  -3.6175  -1.3361  -1.3275
    -1.3274  -1.3187   0.8533   0.8604   0.8604   0.8675   2.4456   2.4488
     2.4510   2.4543   2.5535   2.5566   2.5567   2.5601   2.8563   2.8564
     4.4510   4.4510   4.4511   4.4511   5.0199   5.0253   5.0253   5.0307
     7.4881   7.4881   8.8296   8.8324   8.8324   8.8353

          k = 0.0000 0.0000-0.7071 (  7768 PWs)   bands (ev):

    -4.6085  -4.5997  -3.6344  -3.6277  -3.6260  -3.6192  -1.3351  -1.3275
    -1.3274  -1.3197   0.8528   0.8599   0.8609   0.8681   2.4469   2.4494
     2.4508   2.4530   2.5532   2.5559   2.5576   2.5603   2.8550   2.8577
     4.4427   4.4485   4.4536   4.4589   5.0163   5.0245   5.0260   5.0344
     7.4860   7.4902   8.8250   8.8319   8.8330   8.8399

          k = 0.3536-0.7071 0.0000 (  7788 PWs)   bands (ev):

    -4.3621  -4.3524  -4.3496  -4.3469  -2.5450  -2.5362  -2.5330  -2.5278
    -0.2412  -0.2393  -0.2348  -0.2273   2.0542   2.0615   2.0649   2.0693
     2.0710   2.0743   2.0770   2.0795   3.6066   3.6120   3.6143   3.6193
     3.7387   3.7422   3.7457   3.7505   4.9177   4.9226   4.9233   4.9328
     8.8179   8.8255   8.8270   8.8300   9.2420   9.2455

          k = 0.7071 0.0000 0.3536 (  7788 PWs)   bands (ev):

    -4.3603  -4.3559  -4.3496  -4.3453  -2.5443  -2.5360  -2.5350  -2.5267
    -0.2426  -0.2388  -0.2326  -0.2287   2.0540   2.0595   2.0680   2.0696
     2.0717   2.0737   2.0767   2.0787   3.6063   3.6120   3.6142   3.6196
     3.7392   3.7408   3.7478   3.7492   4.9165   4.9227   4.9255   4.9317
     8.8190   8.8230   8.8273   8.8310   9.2444   9.2497

     the Fermi energy is     6.6576 ev

!    total energy              =    -182.70866003 Ry
     estimated scf accuracy    <          2.3E-11 Ry
     smearing contrib. (-TS)   =      -0.00000693 Ry
     internal energy E=F+TS    =    -182.70865310 Ry

     The total energy is F=E-TS. E is the sum of the following terms:
     one-electron contribution =      42.31699592 Ry
     hartree contribution      =       8.69862678 Ry
     xc contribution           =     -98.63147475 Ry
     ewald contribution        =    -135.09280104 Ry

     convergence has been achieved in  10 iterations

     Forces acting on atoms (cartesian axes, Ry/au):

     atom    1 type  1   force =    -0.00034304    0.00000023   -0.00558082
     atom    2 type  1   force =     0.00241894    0.00000064    0.00043208
     atom    3 type  1   force =    -0.00558131    0.00020197    0.00018502
     atom    4 type  1   force =     0.00045735    0.00196249    0.00240592
     atom    5 type  1   force =     0.00038768   -0.00020277    0.00018411
     atom    6 type  1   force =     0.00091845   -0.00091857    0.00136342
     atom    7 type  1   force =     0.00018449    0.00000019   -0.00013916
     atom    8 type  1   force =     0.00136312   -0.00101887    0.00091811
     atom    9 type  1   force =     0.00018454   -0.00000052   -0.00054605
     atom   10 type  1   force =    -0.00104322   -0.00104301    0.00147574
     atom   11 type  1   force =    -0.00001866    0.00020247    0.00018483
     atom   12 type  1   force =     0.00146336    0.00091859   -0.00101879
     atom   13 type  1   force =     0.00005091   -0.00020315    0.00018458
     atom   14 type  1   force =    -0.00010032    0.00010028    0.00000022
     atom   15 type  1   force =    -0.00034218    0.00000005    0.00005141
     atom   16 type  1   force =    -0.00000009   -0.00000002   -0.00010063

     Total force =     0.009744     Total SCF correction =     0.000008

     Writing output data file ./results/fc3_disp.save/

     init_run     :     64.96s CPU      8.98s WALL (       1 calls)
     electrons    :   3062.01s CPU    281.48s WALL (       1 calls)
     forces       :     35.77s CPU      3.14s WALL (       1 calls)

     Called by init_run:
     wfcinit      :     63.92s CPU      8.06s WALL (       1 calls)
     potinit      :      0.27s CPU      0.31s WALL (       1 calls)
     hinit0       :      0.18s CPU      0.19s WALL (       1 calls)

     Called by electrons:
     c_bands      :   2451.15s CPU    231.24s WALL (      11 calls)
     sum_band     :    601.81s CPU     43.32s WALL (      11 calls)
     v_of_rho     :      2.49s CPU      2.77s WALL (      11 calls)
     newd         :      6.45s CPU      4.16s WALL (      11 calls)
     mix_rho      :      0.37s CPU      0.37s WALL (      11 calls)

     Called by c_bands:
     init_us_2    :    129.81s CPU      8.46s WALL (     864 calls)
     cegterg      :   2008.09s CPU    178.19s WALL (     396 calls)

     Called by *egterg:
     cdiaghg      :     89.97s CPU      5.83s WALL (    2352 calls)
     h_psi        :   1542.95s CPU    150.86s WALL (    2424 calls)
     s_psi        :    112.98s CPU      7.56s WALL (    2424 calls)
     g_psi        :     47.10s CPU      3.06s WALL (    1992 calls)

     Called by h_psi:
     h_psi:calbec :    372.73s CPU     26.20s WALL (    2424 calls)
     vloc_psi     :   1046.12s CPU    116.15s WALL (    2424 calls)
     add_vuspsi   :    110.76s CPU      7.35s WALL (    2424 calls)

     General routines
     calbec       :    518.81s CPU     36.37s WALL (    2964 calls)
     fft          :      3.14s CPU      2.65s WALL (     153 calls)
     ffts         :      0.39s CPU      0.04s WALL (      22 calls)
     fftw         :   1206.79s CPU    120.89s WALL (  107092 calls)
     interpolate  :      0.21s CPU      0.21s WALL (      11 calls)

     Parallel routines

     PWSCF        :  52m42.82s CPU   4m53.77s WALL


   This run was terminated on:  18:43:13  25Mar2026            

=------------------------------------------------------------------------------=
   JOB DONE.
=------------------------------------------------------------------------------=
