
     Program PWSCF v.6.7MaX starts on 25Mar2026 at 20:48:29 

     This program is part of the open-source Quantum ESPRESSO suite
     for quantum simulation of materials; please cite
         "P. Giannozzi et al., J. Phys.:Condens. Matter 21 395502 (2009);
         "P. Giannozzi et al., J. Phys.:Condens. Matter 29 465901 (2017);
          URL http://www.quantum-espresso.org", 
     in publications or presentations arising from this work. More details at
     http://www.quantum-espresso.org/quote

     Parallel version (MPI), running on     1 processors

     MPI processes distributed on     1 nodes
     Reading input from /home/paul/Documents/ETH/master/quatrex/phonon/input_calc/fc3_si/DISP.supercell_template.in.65

     Current dimensions of program PWSCF are:
     Max number of different atomic species (ntypx) = 10
     Max number of k-points (npk) =  40000
     Max angular momentum in pseudopotentials (lmaxx) =  3

     Subspace diagonalization in iterative solution of the eigenvalue problem:
     a serial algorithm will be used


     G-vector sticks info
     --------------------
     sticks:   dense  smooth     PW     G-vecs:    dense   smooth      PW
     Sum        4117    2065    583               175263    62079    9257



     bravais-lattice index     =            0
     lattice parameter (alat)  =      14.4362  a.u.
     unit-cell volume          =    2127.3654 (a.u.)^3
     number of atoms/cell      =           16
     number of atomic types    =            1
     number of electrons       =        64.00
     number of Kohn-Sham states=           38
     kinetic-energy cutoff     =      36.0000  Ry
     charge density cutoff     =     288.0000  Ry
     scf convergence threshold =      1.0E-10
     mixing beta               =       0.7000
     number of iterations used =            8  plain     mixing
     Exchange-correlation= PBE
                           (   1   4   3   4   0   0   0)

     celldm(1)=  14.436183  celldm(2)=   0.000000  celldm(3)=   0.000000
     celldm(4)=   0.000000  celldm(5)=   0.000000  celldm(6)=   0.000000

     crystal axes: (cart. coord. in units of alat)
               a(1) = (   0.000000   0.707107   0.707107 )  
               a(2) = (   0.707107   0.000000   0.707107 )  
               a(3) = (   0.707107   0.707107   0.000000 )  

     reciprocal axes: (cart. coord. in units 2 pi/alat)
               b(1) = ( -0.707107  0.707107  0.707107 )  
               b(2) = (  0.707107 -0.707107  0.707107 )  
               b(3) = (  0.707107  0.707107 -0.707107 )  


     PseudoPot. # 1 for Si read from file:
     ../scf_disp/pseudo/Si.pbe-n-rrkjus_psl.1.0.0.UPF
     MD5 check sum: fa25574f73a70a4139f2adfbefec430c
     Pseudo is Ultrasoft + core correction, Zval =  4.0
     Generated using &quot;atomic&quot; code by A. Dal Corso  v.6.3
     Using radial grid of 1141 points,  6 beta functions with: 
                l(1) =   0
                l(2) =   0
                l(3) =   1
                l(4) =   1
                l(5) =   2
                l(6) =   2
     Q(r) pseudized with 0 coefficients 


     atomic species   valence    mass     pseudopotential
        Si             4.00    28.08500     Si( 1.00)

     No symmetry found



   Cartesian axes

     site n.     atom                  positions (alat units)
         1           Si  tau(   1) = (   0.0000000   0.0000000   0.0013090  )
         2           Si  tau(   2) = (   0.1767767   0.1767767   0.1767767  )
         3           Si  tau(   3) = (  -0.0013090   0.3535534   0.3535534  )
         4           Si  tau(   4) = (   0.1767767   0.5303301   0.5303301  )
         5           Si  tau(   5) = (   0.3535534   0.0000000   0.3535534  )
         6           Si  tau(   6) = (   0.5303301   0.1767767   0.5303301  )
         7           Si  tau(   7) = (   0.3535534   0.3535534   0.7071068  )
         8           Si  tau(   8) = (   0.5303301   0.5303301   0.8838835  )
         9           Si  tau(   9) = (   0.3535534   0.3535534   0.0000000  )
        10           Si  tau(  10) = (   0.5303301   0.5303301   0.1767767  )
        11           Si  tau(  11) = (   0.3535534   0.7071068   0.3535534  )
        12           Si  tau(  12) = (   0.5303301   0.8838835   0.5303301  )
        13           Si  tau(  13) = (   0.7071068   0.3535534   0.3535534  )
        14           Si  tau(  14) = (   0.8838835   0.5303301   0.5303301  )
        15           Si  tau(  15) = (   0.7071068   0.7071068   0.7071068  )
        16           Si  tau(  16) = (   0.8838835   0.8838835   0.8838835  )

     number of k points=    36  Gaussian smearing, width (Ry)=  0.0100
                       cart. coord. in units 2pi/alat
        k(    1) = (   0.0000000   0.0000000   0.0000000), wk =   0.0312500
        k(    2) = (   0.1767767   0.1767767  -0.1767767), wk =   0.0625000
        k(    3) = (  -0.3535534  -0.3535534   0.3535534), wk =   0.0312500
        k(    4) = (   0.3535534   0.0000000   0.0000000), wk =   0.0625000
        k(    5) = (  -0.1767767  -0.5303301   0.5303301), wk =   0.0625000
        k(    6) = (   0.0000000  -0.3535534   0.3535534), wk =   0.0625000
        k(    7) = (  -0.7071068   0.0000000   0.0000000), wk =   0.0312500
        k(    8) = (  -0.7071068   0.3535534   0.0000000), wk =   0.0625000
        k(    9) = (  -0.1767767  -0.1767767  -0.1767767), wk =   0.0625000
        k(   10) = (  -0.1767767   0.1767767   0.1767767), wk =   0.0625000
        k(   11) = (   0.1767767  -0.1767767   0.1767767), wk =   0.0625000
        k(   12) = (   0.3535534   0.3535534   0.3535534), wk =   0.0312500
        k(   13) = (   0.3535534  -0.3535534  -0.3535534), wk =   0.0312500
        k(   14) = (  -0.3535534   0.3535534  -0.3535534), wk =   0.0312500
        k(   15) = (   0.0000000   0.3535534   0.0000000), wk =   0.0625000
        k(   16) = (   0.0000000   0.0000000   0.3535534), wk =   0.0625000
        k(   17) = (   0.1767767   0.5303301   0.5303301), wk =   0.0625000
        k(   18) = (   0.1767767  -0.5303301  -0.5303301), wk =   0.0625000
        k(   19) = (  -0.1767767   0.5303301  -0.5303301), wk =   0.0625000
        k(   20) = (  -0.5303301  -0.1767767  -0.5303301), wk =   0.0625000
        k(   21) = (   0.5303301   0.1767767  -0.5303301), wk =   0.0625000
        k(   22) = (  -0.5303301   0.1767767   0.5303301), wk =   0.0625000
        k(   23) = (   0.5303301  -0.1767767   0.5303301), wk =   0.0625000
        k(   24) = (   0.5303301   0.5303301  -0.1767767), wk =   0.0625000
        k(   25) = (  -0.5303301   0.5303301   0.1767767), wk =   0.0625000
        k(   26) = (   0.5303301  -0.5303301   0.1767767), wk =   0.0625000
        k(   27) = (  -0.5303301  -0.5303301  -0.1767767), wk =   0.0625000
        k(   28) = (   0.0000000   0.3535534   0.3535534), wk =   0.0625000
        k(   29) = (  -0.3535534   0.0000000  -0.3535534), wk =   0.0625000
        k(   30) = (   0.3535534   0.0000000  -0.3535534), wk =   0.0625000
        k(   31) = (   0.3535534   0.3535534   0.0000000), wk =   0.0625000
        k(   32) = (  -0.3535534   0.3535534   0.0000000), wk =   0.0625000
        k(   33) = (   0.0000000  -0.7071068   0.0000000), wk =   0.0312500
        k(   34) = (   0.0000000   0.0000000  -0.7071068), wk =   0.0312500
        k(   35) = (   0.3535534  -0.7071068   0.0000000), wk =   0.0625000
        k(   36) = (   0.7071068   0.0000000   0.3535534), wk =   0.0625000

     Dense  grid:   175263 G-vectors     FFT dimensions: (  80,  80,  80)

     Smooth grid:    62079 G-vectors     FFT dimensions: (  60,  60,  60)

     Estimated max dynamical RAM per process >     930.95 MB

     Initial potential from superposition of free atoms

     starting charge   63.99105, renormalised to   64.00000
     Starting wfcs are   64 randomized atomic wfcs

     total cpu time spent up to now is        7.8 secs

     Self-consistent Calculation

     iteration #  1     ecut=    36.00 Ry     beta= 0.70
     Davidson diagonalization with overlap
     ethr =  1.00E-02,  avg # of iterations =  3.1

     Threshold (ethr) on eigenvalues was too large:
     Diagonalizing with lowered threshold

     Davidson diagonalization with overlap
     ethr =  6.41E-04,  avg # of iterations =  2.5

     total cpu time spent up to now is       47.3 secs

     total energy              =    -182.68674788 Ry
     estimated scf accuracy    <       0.44681717 Ry

     iteration #  2     ecut=    36.00 Ry     beta= 0.70
     Davidson diagonalization with overlap
     ethr =  6.98E-04,  avg # of iterations =  1.0

     total cpu time spent up to now is       64.3 secs

     total energy              =    -182.70356755 Ry
     estimated scf accuracy    <       0.02124197 Ry

     iteration #  3     ecut=    36.00 Ry     beta= 0.70
     Davidson diagonalization with overlap
     c_bands:  1 eigenvalues not converged
     c_bands:  1 eigenvalues not converged
     c_bands:  1 eigenvalues not converged
     c_bands:  1 eigenvalues not converged
     c_bands:  1 eigenvalues not converged
     c_bands:  1 eigenvalues not converged
     c_bands:  1 eigenvalues not converged
     c_bands:  1 eigenvalues not converged
     c_bands:  1 eigenvalues not converged
     ethr =  3.32E-05,  avg # of iterations = 13.2

     total cpu time spent up to now is       92.6 secs

     total energy              =    -182.70834063 Ry
     estimated scf accuracy    <       0.00066651 Ry

     iteration #  4     ecut=    36.00 Ry     beta= 0.70
     Davidson diagonalization with overlap
     c_bands:  2 eigenvalues not converged
     c_bands:  1 eigenvalues not converged
     ethr =  1.04E-06,  avg # of iterations = 10.7

     total cpu time spent up to now is      120.9 secs

     total energy              =    -182.70863751 Ry
     estimated scf accuracy    <       0.00006648 Ry

     iteration #  5     ecut=    36.00 Ry     beta= 0.70
     Davidson diagonalization with overlap
     c_bands:  1 eigenvalues not converged
     ethr =  1.04E-07,  avg # of iterations =  4.3

     total cpu time spent up to now is      145.1 secs

     total energy              =    -182.70865793 Ry
     estimated scf accuracy    <       0.00000615 Ry

     iteration #  6     ecut=    36.00 Ry     beta= 0.70
     Davidson diagonalization with overlap
     ethr =  9.62E-09,  avg # of iterations =  4.2

     total cpu time spent up to now is      167.1 secs

     total energy              =    -182.70865985 Ry
     estimated scf accuracy    <       0.00000079 Ry

     iteration #  7     ecut=    36.00 Ry     beta= 0.70
     Davidson diagonalization with overlap
     c_bands:  4 eigenvalues not converged
     ethr =  1.23E-09,  avg # of iterations =  4.3

     total cpu time spent up to now is      190.1 secs

     total energy              =    -182.70865998 Ry
     estimated scf accuracy    <       0.00000013 Ry

     iteration #  8     ecut=    36.00 Ry     beta= 0.70
     Davidson diagonalization with overlap
     ethr =  2.11E-10,  avg # of iterations =  3.7

     total cpu time spent up to now is      210.8 secs

     total energy              =    -182.70866000 Ry
     estimated scf accuracy    <          5.4E-09 Ry

     iteration #  9     ecut=    36.00 Ry     beta= 0.70
     Davidson diagonalization with overlap
     ethr =  8.39E-12,  avg # of iterations =  5.3

     total cpu time spent up to now is      237.3 secs

     total energy              =    -182.70866001 Ry
     estimated scf accuracy    <          6.8E-10 Ry

     iteration # 10     ecut=    36.00 Ry     beta= 0.70
     Davidson diagonalization with overlap
     c_bands:  1 eigenvalues not converged
     ethr =  1.06E-12,  avg # of iterations =  4.3

     total cpu time spent up to now is      258.9 secs

     End of self-consistent calculation

          k = 0.0000 0.0000 0.0000 (  7799 PWs)   bands (ev):

    -5.7007  -3.3365  -3.3292  -3.3291  -3.3218  -1.5083  -1.5073  -1.4987
    -1.4987  -1.4901  -1.4893  -0.6828  -0.6752  -0.6752  -0.6675   3.4724
     3.4725   3.4761   3.4761   3.4797   3.4797   5.1451   5.1504   5.1556
     5.1578   5.1590   5.1612   5.1663   5.1715   6.3639   6.3725   6.3812
     7.0436   7.0486   7.0525   7.0526   7.0564   7.0614

          k = 0.1768 0.1768-0.1768 (  7757 PWs)   bands (ev):

    -5.4938  -3.9802  -3.2498  -3.2421  -3.2392  -2.3701  -2.3602  -2.3579
    -0.5046  -0.4946  -0.4918  -0.4475  -0.4441  -0.4364   0.3615   2.8716
     2.8763   2.8781   3.6471   3.6502   3.6512   4.0568   4.0646   4.0674
     4.7605   4.7879   4.7913   4.7922   5.2696   5.2760   6.0778   6.0852
     7.2392   7.2442   7.2468   8.0950   8.3226   8.3312

          k =-0.3536-0.3536 0.3536 (  7744 PWs)   bands (ev):

    -4.8943  -4.8845  -2.9540  -2.9479  -2.9438  -2.9411  -2.9355  -2.9317
    -0.0640  -0.0602  -0.0575  -0.0508  -0.0494  -0.0397   2.4054   2.4129
     2.7706   2.7773   2.7798   2.7834   2.7847   2.7856   4.1284   4.1297
     4.1307   4.1355   4.1420   4.1441   5.5979   5.5981   5.6024   5.6157
     7.8733   7.8752   7.8759   7.8780   7.8864   7.8904

          k = 0.3536 0.0000 0.0000 (  7715 PWs)   bands (ev):

    -5.4241  -3.5006  -3.4936  -3.4926  -3.4856  -3.2731  -1.4250  -1.4174
    -1.4174  -1.4098  -0.0754  -0.0681  -0.0671  -0.0598   0.6018   2.8937
     2.8961   2.8979   2.9002   3.7225   3.7270   3.8738   3.8794   3.8812
     3.8868   5.0513   5.0804   5.0885   5.0901   5.0988   5.5464   5.5542
     6.9627   7.8867   8.3315   8.3334   8.3390   8.3828

          k =-0.1768-0.5303 0.5303 (  7760 PWs)   bands (ev):

    -4.9488  -4.4320  -3.8841  -3.4544  -3.4476  -2.7308  -2.1839  -2.1770
    -0.6040  -0.5982  -0.3226   0.4894   0.4966   1.4136   1.7076   2.2376
     2.2411   2.3150   2.9994   3.0037   3.1297   3.3603   3.3644   3.6547
     4.0294   4.1315   4.4054   4.4132   4.4604   5.0340   5.1186   5.5931
     7.7119   8.2129   8.5250   8.7565   8.7626   9.1425

          k = 0.0000-0.3536 0.3536 (  7746 PWs)   bands (ev):

    -5.1528  -4.1255  -4.1170  -3.0749  -3.0681  -2.7884  -2.7812  -1.9082
    -0.9068  -0.4762  -0.4691   0.3795   0.3861   1.0377   1.0457   1.9919
     2.8689   2.8760   2.9522   2.9557   3.5590   3.5666   3.6763   3.9121
     4.1761   4.1807   4.5145   4.5204   4.7146   4.7585   4.7694   6.0829
     7.5584   8.3131   8.3187   8.6330   8.6401   9.0082

          k =-0.7071 0.0000 0.0000 (  7768 PWs)   bands (ev):

    -4.6085  -4.5998  -3.6344  -3.6277  -3.6260  -3.6192  -1.3351  -1.3275
    -1.3274  -1.3198   0.8528   0.8599   0.8609   0.8681   2.4469   2.4495
     2.4507   2.4531   2.5531   2.5557   2.5577   2.5603   2.8549   2.8578
     4.4429   4.4484   4.4536   4.4589   5.0162   5.0245   5.0259   5.0345
     7.4860   7.4902   8.8250   8.8319   8.8331   8.8398

          k =-0.7071 0.3536 0.0000 (  7788 PWs)   bands (ev):

    -4.3601  -4.3567  -4.3518  -4.3424  -2.5421  -2.5379  -2.5326  -2.5294
    -0.2427  -0.2395  -0.2342  -0.2262   2.0574   2.0618   2.0658   2.0674
     2.0696   2.0724   2.0759   2.0815   3.6111   3.6116   3.6139   3.6158
     3.7393   3.7418   3.7472   3.7483   4.9160   4.9200   4.9243   4.9360
     8.8193   8.8249   8.8272   8.8290   9.2432   9.2488

          k =-0.1768-0.1768-0.1768 (  7757 PWs)   bands (ev):

    -5.4938  -3.9815  -3.2482  -3.2429  -3.2374  -2.3671  -2.3623  -2.3575
    -0.5022  -0.4983  -0.4938  -0.4519  -0.4451  -0.4376   0.3662   2.8747
     2.8781   2.8807   3.6451   3.6473   3.6516   4.0622   4.0665   4.0724
     4.7653   4.7830   4.7876   4.7923   5.2656   5.2768   6.0722   6.0848
     7.2372   7.2405   7.2460   8.0934   8.3253   8.3307

          k =-0.1768 0.1768 0.1768 (  7757 PWs)   bands (ev):

    -5.4939  -3.9828  -3.2464  -3.2436  -3.2359  -2.3667  -2.3644  -2.3544
    -0.5048  -0.5011  -0.4922  -0.4528  -0.4461  -0.4419   0.3708   2.8776
     2.8793   2.8841   3.6447   3.6457   3.6489   4.0668   4.0695   4.0773
     4.7711   4.7823   4.7836   4.7874   5.2664   5.2729   6.0717   6.0790
     7.2357   7.2383   7.2434   8.0917   8.3248   8.3333

          k = 0.1768-0.1768 0.1768 (  7757 PWs)   bands (ev):

    -5.4938  -3.9815  -3.2483  -3.2428  -3.2374  -2.3670  -2.3623  -2.3575
    -0.5024  -0.4982  -0.4940  -0.4516  -0.4450  -0.4378   0.3662   2.8750
     2.8776   2.8809   3.6444   3.6487   3.6508   4.0617   4.0676   4.0718
     4.7663   4.7830   4.7878   4.7912   5.2656   5.2768   6.0721   6.0848
     7.2364   7.2419   7.2454   8.0934   8.3242   8.3304

          k = 0.3536 0.3536 0.3536 (  7744 PWs)   bands (ev):

    -4.8947  -4.8849  -2.9496  -2.9475  -2.9448  -2.9426  -2.9353  -2.9300
    -0.0655  -0.0621  -0.0598  -0.0565  -0.0505  -0.0426   2.4097   2.4170
     2.7773   2.7813   2.7828   2.7852   2.7862   2.7933   4.1231   4.1295
     4.1301   4.1354   4.1363   4.1439   5.5894   5.6000   5.6029   5.6136
     7.8685   7.8705   7.8759   7.8796   7.8838   7.8872

          k = 0.3536-0.3536-0.3536 (  7744 PWs)   bands (ev):

    -4.8902  -4.8902  -2.9494  -2.9464  -2.9459  -2.9409  -2.9382  -2.9245
    -0.0723  -0.0635  -0.0597  -0.0586  -0.0547  -0.0436   2.4173   2.4176
     2.7820   2.7821   2.7841   2.7883   2.7910   2.8033   4.1250   4.1261
     4.1325   4.1333   4.1343   4.1348   5.5925   5.5926   5.6063   5.6063
     7.8697   7.8705   7.8735   7.8742   7.8814   7.8819

          k =-0.3536 0.3536-0.3536 (  7744 PWs)   bands (ev):

    -4.8899  -4.8898  -2.9539  -2.9466  -2.9426  -2.9410  -2.9361  -2.9294
    -0.0678  -0.0614  -0.0597  -0.0566  -0.0496  -0.0420   2.4132   2.4133
     2.7734   2.7801   2.7828   2.7854   2.7882   2.7963   4.1253   4.1319
     4.1327   4.1329   4.1350   4.1404   5.5898   5.6011   5.6018   5.6134
     7.8675   7.8768   7.8773   7.8786   7.8803   7.8849

          k = 0.0000 0.3536 0.0000 (  7715 PWs)   bands (ev):

    -5.4241  -3.5017  -3.4937  -3.4924  -3.4844  -3.2732  -1.4253  -1.4214
    -1.4134  -1.4094  -0.0760  -0.0702  -0.0651  -0.0593   0.6018   2.8924
     2.8957   2.8982   2.9015   3.7249   3.7249   3.8717   3.8787   3.8818
     3.8888   5.0505   5.0850   5.0888   5.0912   5.0941   5.5502   5.5502
     6.9627   7.8867   8.3286   8.3331   8.3387   8.3827

          k = 0.0000 0.0000 0.3536 (  7715 PWs)   bands (ev):

    -5.4241  -3.5006  -3.4936  -3.4925  -3.4856  -3.2731  -1.4250  -1.4175
    -1.4174  -1.4097  -0.0754  -0.0681  -0.0670  -0.0598   0.6018   2.8937
     2.8961   2.8979   2.9002   3.7225   3.7270   3.8737   3.8794   3.8812
     3.8869   5.0514   5.0799   5.0888   5.0907   5.0984   5.5463   5.5542
     6.9627   7.8867   8.3296   8.3330   8.3395   8.3828

          k = 0.1768 0.5303 0.5303 (  7760 PWs)   bands (ev):

    -4.9489  -4.4329  -3.8843  -3.4526  -3.4458  -2.7345  -2.1823  -2.1754
    -0.6073  -0.6014  -0.3152   0.4826   0.4897   1.4144   1.7139   2.2414
     2.2440   2.3167   2.9987   3.0039   3.1319   3.3587   3.3624   3.6594
     4.0305   4.1264   4.4107   4.4207   4.4545   5.0275   5.1234   5.5842
     7.7078   8.2065   8.5229   8.7563   8.7625   9.1390

          k = 0.1768-0.5303-0.5303 (  7760 PWs)   bands (ev):

    -4.9492  -4.4334  -3.8837  -3.4525  -3.4457  -2.7328  -2.1821  -2.1752
    -0.6080  -0.6021  -0.3198   0.4820   0.4892   1.4101   1.7171   2.2428
     2.2463   2.3199   3.0016   3.0058   3.1373   3.3572   3.3613   3.6642
     4.0273   4.1262   4.4098   4.4178   4.4540   5.0281   5.1164   5.5850
     7.7073   8.2062   8.5228   8.7531   8.7592   9.1380

          k =-0.1768 0.5303-0.5303 (  7760 PWs)   bands (ev):

    -4.9491  -4.4325  -3.8834  -3.4544  -3.4476  -2.7291  -2.1836  -2.1768
    -0.6047  -0.5988  -0.3272   0.4888   0.4960   1.4093   1.7109   2.2400
     2.2424   2.3182   3.0014   3.0066   3.1352   3.3593   3.3630   3.6595
     4.0263   4.1313   4.4024   4.4122   4.4599   5.0347   5.1116   5.5940
     7.7113   8.2127   8.5251   8.7530   8.7592   9.1415

          k =-0.5303-0.1768-0.5303 (  7760 PWs)   bands (ev):

    -4.9490  -4.4327  -3.8839  -3.4509  -3.4493  -2.7318  -2.1825  -2.1765
    -0.6081  -0.5979  -0.3212   0.4859   0.4926   1.4118   1.7124   2.2407
     2.2431   2.3175   2.9998   3.0053   3.1336   3.3574   3.3642   3.6595
     4.0282   4.1291   4.4105   4.4126   4.4573   5.0310   5.1177   5.5890
     7.7096   8.2096   8.5239   8.7550   8.7605   9.1402

          k = 0.5303 0.1768-0.5303 (  7760 PWs)   bands (ev):

    -4.9487  -4.4323  -3.8844  -3.4544  -3.4458  -2.7336  -2.1821  -2.1774
    -0.6051  -0.5995  -0.3167   0.4838   0.4959   1.4161   1.7091   2.2384
     2.2416   2.3144   2.9973   3.0029   3.1283   3.3605   3.3636   3.6547
     4.0314   4.1293   4.4109   4.4163   4.4577   5.0306   5.1244   5.5882
     7.7102   8.2098   8.5240   8.7575   8.7648   9.1412

          k =-0.5303 0.1768 0.5303 (  7760 PWs)   bands (ev):

    -4.9492  -4.4331  -3.8833  -3.4543  -3.4458  -2.7301  -2.1817  -2.1769
    -0.6065  -0.6010  -0.3257   0.4826   0.4947   1.4075   1.7157   2.2422
     2.2454   2.3204   3.0022   3.0079   3.1391   3.3580   3.3611   3.6643
     4.0251   4.1287   4.4068   4.4122   4.4569   5.0318   5.1105   5.5899
     7.7090   8.2094   8.5239   8.7507   8.7582   9.1392

          k = 0.5303-0.1768 0.5303 (  7760 PWs)   bands (ev):

    -4.9490  -4.4328  -3.8838  -3.4509  -3.4493  -2.7318  -2.1825  -2.1765
    -0.6081  -0.5980  -0.3212   0.4859   0.4926   1.4118   1.7125   2.2407
     2.2430   2.3174   2.9998   3.0053   3.1337   3.3574   3.3642   3.6595
     4.0284   4.1290   4.4103   4.4128   4.4572   5.0310   5.1176   5.5891
     7.7096   8.2096   8.5240   8.7550   8.7605   9.1402

          k = 0.5303 0.5303-0.1768 (  7760 PWs)   bands (ev):

    -4.9488  -4.4321  -3.8840  -3.4545  -3.4477  -2.7308  -2.1839  -2.1770
    -0.6041  -0.5981  -0.3226   0.4895   0.4965   1.4135   1.7077   2.2381
     2.2407   2.3149   2.9989   3.0042   3.1297   3.3605   3.3642   3.6547
     4.0295   4.1315   4.4043   4.4143   4.4603   5.0341   5.1185   5.5932
     7.7119   8.2129   8.5251   8.7564   8.7627   9.1425

          k =-0.5303 0.5303 0.1768 (  7760 PWs)   bands (ev):

    -4.9492  -4.4334  -3.8838  -3.4525  -3.4456  -2.7328  -2.1821  -2.1752
    -0.6081  -0.6021  -0.3197   0.4820   0.4891   1.4101   1.7171   2.2434
     2.2456   2.3200   3.0011   3.0063   3.1373   3.3574   3.3611   3.6642
     4.0273   4.1262   4.4088   4.4187   4.4540   5.0281   5.1165   5.5850
     7.7073   8.2062   8.5228   8.7530   8.7593   9.1381

          k = 0.5303-0.5303 0.1768 (  7760 PWs)   bands (ev):

    -4.9489  -4.4330  -3.8843  -3.4526  -3.4457  -2.7345  -2.1823  -2.1754
    -0.6073  -0.6014  -0.3152   0.4826   0.4897   1.4144   1.7138   2.2408
     2.2443   2.3170   2.9990   3.0035   3.1319   3.3585   3.3626   3.6594
     4.0305   4.1265   4.4119   4.4197   4.4544   5.0275   5.1234   5.5841
     7.7079   8.2064   8.5229   8.7564   8.7625   9.1390

          k =-0.5303-0.5303-0.1768 (  7760 PWs)   bands (ev):

    -4.9491  -4.4324  -3.8834  -3.4544  -3.4477  -2.7291  -2.1837  -2.1767
    -0.6047  -0.5989  -0.3271   0.4888   0.4960   1.4092   1.7109   2.2395
     2.2431   2.3179   3.0018   3.0061   3.1351   3.3591   3.3632   3.6595
     4.0262   4.1312   4.4034   4.4113   4.4599   5.0346   5.1116   5.5940
     7.7113   8.2127   8.5251   8.7531   8.7592   9.1415

          k = 0.0000 0.3536 0.3536 (  7746 PWs)   bands (ev):

    -5.1532  -4.1262  -4.1177  -3.0733  -3.0667  -2.7860  -2.7787  -1.9145
    -0.8989  -0.4821  -0.4751   0.3740   0.3806   1.0409   1.0489   1.9952
     2.8756   2.8824   2.9527   2.9560   3.5636   3.5712   3.6852   3.9072
     4.1726   4.1771   4.5186   4.5245   4.7130   4.7526   4.7627   6.0721
     7.5522   8.3112   8.3168   8.6283   8.6357   9.4675

          k =-0.3536 0.0000-0.3536 (  7746 PWs)   bands (ev):

    -5.1530  -4.1216  -4.1216  -3.0708  -3.0707  -2.7866  -2.7804  -1.9114
    -0.9029  -0.4820  -0.4692   0.3800   0.3800   1.0433   1.0433   1.9936
     2.8751   2.8762   2.9540   2.9544   3.5650   3.5651   3.6807   3.9097
     4.1724   4.1807   4.5193   4.5195   4.7136   4.7608   4.7614   6.0775
     7.5553   8.3149   8.3149   8.6343   8.6343   9.0117

          k = 0.3536 0.0000-0.3536 (  7746 PWs)   bands (ev):

    -5.1530  -4.1226  -4.1206  -3.0753  -3.0663  -2.7836  -2.7834  -1.9114
    -0.9029  -0.4756  -0.4756   0.3735   0.3865   1.0383   1.0483   1.9936
     2.8755   2.8758   2.9524   2.9560   3.5620   3.5682   3.6806   3.9097
     4.1765   4.1767   4.5141   4.5248   4.7136   4.7598   4.7623   6.0774
     7.5553   8.3095   8.3204   8.6336   8.6350   9.0114

          k = 0.3536 0.3536 0.0000 (  7746 PWs)   bands (ev):

    -5.1528  -4.1255  -4.1170  -3.0749  -3.0683  -2.7885  -2.7810  -1.9083
    -0.9068  -0.4762  -0.4691   0.3796   0.3861   1.0377   1.0457   1.9919
     2.8691   2.8760   2.9522   2.9556   3.5590   3.5666   3.6763   3.9121
     4.1762   4.1807   4.5145   4.5203   4.7146   4.7589   4.7691   6.0829
     7.5584   8.3131   8.3188   8.6329   8.6402   9.4711

          k =-0.3536 0.3536 0.0000 (  7746 PWs)   bands (ev):

    -5.1532  -4.1262  -4.1177  -3.0733  -3.0665  -2.7860  -2.7788  -1.9145
    -0.8989  -0.4822  -0.4750   0.3740   0.3805   1.0409   1.0489   1.9952
     2.8755   2.8824   2.9527   2.9561   3.5636   3.5712   3.6852   3.9072
     4.1725   4.1771   4.5187   4.5245   4.7130   4.7521   4.7632   6.0720
     7.5522   8.3111   8.3168   8.6284   8.6356   9.0087

          k = 0.0000-0.7071 0.0000 (  7768 PWs)   bands (ev):

    -4.6041  -4.6041  -3.6362  -3.6268  -3.6268  -3.6175  -1.3361  -1.3275
    -1.3274  -1.3186   0.8533   0.8604   0.8604   0.8675   2.4459   2.4490
     2.4508   2.4540   2.5534   2.5566   2.5567   2.5602   2.8563   2.8565
     4.4510   4.4510   4.4511   4.4511   5.0199   5.0253   5.0253   5.0307
     7.4881   7.4881   8.8296   8.8324   8.8324   8.8352

          k = 0.0000 0.0000-0.7071 (  7768 PWs)   bands (ev):

    -4.6084  -4.5998  -3.6345  -3.6277  -3.6260  -3.6192  -1.3351  -1.3275
    -1.3274  -1.3197   0.8528   0.8599   0.8609   0.8681   2.4469   2.4494
     2.4508   2.4530   2.5530   2.5556   2.5578   2.5604   2.8549   2.8578
     4.4429   4.4484   4.4537   4.4587   5.0161   5.0245   5.0260   5.0346
     7.4860   7.4902   8.8251   8.8318   8.8330   8.8398

          k = 0.3536-0.7071 0.0000 (  7788 PWs)   bands (ev):

    -4.3587  -4.3558  -4.3531  -4.3434  -2.5431  -2.5381  -2.5348  -2.5260
    -0.2440  -0.2367  -0.2320  -0.2300   2.0565   2.0616   2.0640   2.0683
     2.0703   2.0722   2.0751   2.0837   3.6069   3.6118   3.6140   3.6195
     3.7379   3.7430   3.7462   3.7500   4.9154   4.9248   4.9256   4.9306
     8.8203   8.8230   8.8248   8.8323   9.2416   9.2463

          k = 0.7071 0.0000 0.3536 (  7788 PWs)   bands (ev):

    -4.3602  -4.3559  -4.3496  -4.3453  -2.5443  -2.5360  -2.5350  -2.5267
    -0.2426  -0.2388  -0.2326  -0.2287   2.0573   2.0634   2.0643   2.0653
     2.0693   2.0702   2.0788   2.0831   3.6069   3.6122   3.6141   3.6191
     3.7392   3.7405   3.7480   3.7494   4.9165   4.9226   4.9255   4.9318
     8.8192   8.8230   8.8273   8.8309   9.2413   9.2461

     the Fermi energy is     6.6576 ev

!    total energy              =    -182.70866001 Ry
     estimated scf accuracy    <          2.4E-11 Ry
     smearing contrib. (-TS)   =      -0.00000693 Ry
     internal energy E=F+TS    =    -182.70865308 Ry

     The total energy is F=E-TS. E is the sum of the following terms:
     one-electron contribution =      42.31699594 Ry
     hartree contribution      =       8.69862689 Ry
     xc contribution           =     -98.63147486 Ry
     ewald contribution        =    -135.09280104 Ry

     convergence has been achieved in  10 iterations

     Forces acting on atoms (cartesian axes, Ry/au):

     atom    1 type  1   force =     0.00034235   -0.00000017   -0.00558267
     atom    2 type  1   force =    -0.00042021    0.00196089    0.00239514
     atom    3 type  1   force =     0.00558216    0.00020398    0.00018396
     atom    4 type  1   force =    -0.00238214   -0.00000068    0.00044569
     atom    5 type  1   force =     0.00001842    0.00020367    0.00018389
     atom    6 type  1   force =     0.00101905   -0.00101897    0.00146384
     atom    7 type  1   force =    -0.00018451    0.00000061   -0.00054527
     atom    8 type  1   force =    -0.00147634    0.00094289   -0.00104338
     atom    9 type  1   force =    -0.00018443   -0.00000050   -0.00013994
     atom   10 type  1   force =    -0.00094261   -0.00094295    0.00137572
     atom   11 type  1   force =    -0.00038737   -0.00020326    0.00018501
     atom   12 type  1   force =    -0.00137590   -0.00104307    0.00094317
     atom   13 type  1   force =    -0.00005178   -0.00020290    0.00018427
     atom   14 type  1   force =     0.00000005   -0.00000001   -0.00010027
     atom   15 type  1   force =     0.00034289    0.00000008    0.00005130
     atom   16 type  1   force =     0.00010039    0.00010040   -0.00000045

     Total force =     0.009746     Total SCF correction =     0.000009

     Writing output data file ./results/fc3_disp.save/

     init_run     :     55.50s CPU      7.74s WALL (       1 calls)
     electrons    :   2755.18s CPU    251.16s WALL (       1 calls)
     forces       :     34.44s CPU      3.02s WALL (       1 calls)

     Called by init_run:
     wfcinit      :     54.48s CPU      6.83s WALL (       1 calls)
     potinit      :      0.26s CPU      0.31s WALL (       1 calls)
     hinit0       :      0.18s CPU      0.19s WALL (       1 calls)

     Called by electrons:
     c_bands      :   2207.38s CPU    206.82s WALL (      11 calls)
     sum_band     :    539.37s CPU     37.65s WALL (      11 calls)
     v_of_rho     :      2.35s CPU      2.62s WALL (      11 calls)
     newd         :      6.06s CPU      4.12s WALL (      11 calls)
     mix_rho      :      0.34s CPU      0.35s WALL (      11 calls)

     Called by c_bands:
     init_us_2    :    129.48s CPU      8.25s WALL (     864 calls)
     cegterg      :   1751.40s CPU    154.86s WALL (     396 calls)

     Called by *egterg:
     cdiaghg      :     66.71s CPU      4.23s WALL (    2399 calls)
     h_psi        :   1372.17s CPU    133.65s WALL (    2471 calls)
     s_psi        :     86.22s CPU      5.52s WALL (    2471 calls)
     g_psi        :     48.04s CPU      3.03s WALL (    2039 calls)

     Called by h_psi:
     h_psi:calbec :    184.25s CPU     12.76s WALL (    2471 calls)
     vloc_psi     :   1091.75s CPU    114.41s WALL (    2471 calls)
     add_vuspsi   :     82.95s CPU      5.34s WALL (    2471 calls)

     General routines
     calbec       :    256.93s CPU     17.73s WALL (    3011 calls)
     fft          :      3.01s CPU      2.53s WALL (     153 calls)
     ffts         :      0.38s CPU      0.04s WALL (      22 calls)
     fftw         :   1254.96s CPU    119.11s WALL (  108176 calls)
     interpolate  :      0.20s CPU      0.21s WALL (      11 calls)

     Parallel routines

     PWSCF        :  47m25.23s CPU   4m22.10s WALL


   This run was terminated on:  20:52:51  25Mar2026            

=------------------------------------------------------------------------------=
   JOB DONE.
=------------------------------------------------------------------------------=
