
     Program PWSCF v.6.7MaX starts on 25Mar2026 at 19:56: 9 

     This program is part of the open-source Quantum ESPRESSO suite
     for quantum simulation of materials; please cite
         "P. Giannozzi et al., J. Phys.:Condens. Matter 21 395502 (2009);
         "P. Giannozzi et al., J. Phys.:Condens. Matter 29 465901 (2017);
          URL http://www.quantum-espresso.org", 
     in publications or presentations arising from this work. More details at
     http://www.quantum-espresso.org/quote

     Parallel version (MPI), running on     1 processors

     MPI processes distributed on     1 nodes
     Reading input from /home/paul/Documents/ETH/master/quatrex/phonon/input_calc/fc3_si/DISP.supercell_template.in.50

     Current dimensions of program PWSCF are:
     Max number of different atomic species (ntypx) = 10
     Max number of k-points (npk) =  40000
     Max angular momentum in pseudopotentials (lmaxx) =  3

     Subspace diagonalization in iterative solution of the eigenvalue problem:
     a serial algorithm will be used

     Found symmetry operation: I + ( -0.5000 -0.0000  0.0000)
     This is a supercell, fractional translations are disabled

     G-vector sticks info
     --------------------
     sticks:   dense  smooth     PW     G-vecs:    dense   smooth      PW
     Sum        4117    2065    583               175263    62079    9257



     bravais-lattice index     =            0
     lattice parameter (alat)  =      14.4362  a.u.
     unit-cell volume          =    2127.3654 (a.u.)^3
     number of atoms/cell      =           16
     number of atomic types    =            1
     number of electrons       =        64.00
     number of Kohn-Sham states=           38
     kinetic-energy cutoff     =      36.0000  Ry
     charge density cutoff     =     288.0000  Ry
     scf convergence threshold =      1.0E-10
     mixing beta               =       0.7000
     number of iterations used =            8  plain     mixing
     Exchange-correlation= PBE
                           (   1   4   3   4   0   0   0)

     celldm(1)=  14.436183  celldm(2)=   0.000000  celldm(3)=   0.000000
     celldm(4)=   0.000000  celldm(5)=   0.000000  celldm(6)=   0.000000

     crystal axes: (cart. coord. in units of alat)
               a(1) = (   0.000000   0.707107   0.707107 )  
               a(2) = (   0.707107   0.000000   0.707107 )  
               a(3) = (   0.707107   0.707107   0.000000 )  

     reciprocal axes: (cart. coord. in units 2 pi/alat)
               b(1) = ( -0.707107  0.707107  0.707107 )  
               b(2) = (  0.707107 -0.707107  0.707107 )  
               b(3) = (  0.707107  0.707107 -0.707107 )  


     PseudoPot. # 1 for Si read from file:
     ../scf_disp/pseudo/Si.pbe-n-rrkjus_psl.1.0.0.UPF
     MD5 check sum: fa25574f73a70a4139f2adfbefec430c
     Pseudo is Ultrasoft + core correction, Zval =  4.0
     Generated using &quot;atomic&quot; code by A. Dal Corso  v.6.3
     Using radial grid of 1141 points,  6 beta functions with: 
                l(1) =   0
                l(2) =   0
                l(3) =   1
                l(4) =   1
                l(5) =   2
                l(6) =   2
     Q(r) pseudized with 0 coefficients 


     atomic species   valence    mass     pseudopotential
        Si             4.00    28.08500     Si( 1.00)

     No symmetry found



   Cartesian axes

     site n.     atom                  positions (alat units)
         1           Si  tau(   1) = (   0.0000000   0.0000000  -0.0013090  )
         2           Si  tau(   2) = (   0.1767767   0.1767767   0.1767767  )
         3           Si  tau(   3) = (   0.0000000   0.3535534   0.3522444  )
         4           Si  tau(   4) = (   0.1767767   0.5303301   0.5303301  )
         5           Si  tau(   5) = (   0.3535534   0.0000000   0.3535534  )
         6           Si  tau(   6) = (   0.5303301   0.1767767   0.5303301  )
         7           Si  tau(   7) = (   0.3535534   0.3535534   0.7071068  )
         8           Si  tau(   8) = (   0.5303301   0.5303301   0.8838835  )
         9           Si  tau(   9) = (   0.3535534   0.3535534   0.0000000  )
        10           Si  tau(  10) = (   0.5303301   0.5303301   0.1767767  )
        11           Si  tau(  11) = (   0.3535534   0.7071068   0.3535534  )
        12           Si  tau(  12) = (   0.5303301   0.8838835   0.5303301  )
        13           Si  tau(  13) = (   0.7071068   0.3535534   0.3535534  )
        14           Si  tau(  14) = (   0.8838835   0.5303301   0.5303301  )
        15           Si  tau(  15) = (   0.7071068   0.7071068   0.7071068  )
        16           Si  tau(  16) = (   0.8838835   0.8838835   0.8838835  )

     number of k points=    36  Gaussian smearing, width (Ry)=  0.0100
                       cart. coord. in units 2pi/alat
        k(    1) = (   0.0000000   0.0000000   0.0000000), wk =   0.0312500
        k(    2) = (   0.1767767   0.1767767  -0.1767767), wk =   0.0625000
        k(    3) = (  -0.3535534  -0.3535534   0.3535534), wk =   0.0312500
        k(    4) = (   0.3535534   0.0000000   0.0000000), wk =   0.0625000
        k(    5) = (  -0.1767767  -0.5303301   0.5303301), wk =   0.0625000
        k(    6) = (   0.0000000  -0.3535534   0.3535534), wk =   0.0625000
        k(    7) = (  -0.7071068   0.0000000   0.0000000), wk =   0.0312500
        k(    8) = (  -0.7071068   0.3535534   0.0000000), wk =   0.0625000
        k(    9) = (  -0.1767767  -0.1767767  -0.1767767), wk =   0.0625000
        k(   10) = (  -0.1767767   0.1767767   0.1767767), wk =   0.0625000
        k(   11) = (   0.1767767  -0.1767767   0.1767767), wk =   0.0625000
        k(   12) = (   0.3535534   0.3535534   0.3535534), wk =   0.0312500
        k(   13) = (   0.3535534  -0.3535534  -0.3535534), wk =   0.0312500
        k(   14) = (  -0.3535534   0.3535534  -0.3535534), wk =   0.0312500
        k(   15) = (   0.0000000   0.3535534   0.0000000), wk =   0.0625000
        k(   16) = (   0.0000000   0.0000000   0.3535534), wk =   0.0625000
        k(   17) = (   0.1767767   0.5303301   0.5303301), wk =   0.0625000
        k(   18) = (   0.1767767  -0.5303301  -0.5303301), wk =   0.0625000
        k(   19) = (  -0.1767767   0.5303301  -0.5303301), wk =   0.0625000
        k(   20) = (  -0.5303301  -0.1767767  -0.5303301), wk =   0.0625000
        k(   21) = (   0.5303301   0.1767767  -0.5303301), wk =   0.0625000
        k(   22) = (  -0.5303301   0.1767767   0.5303301), wk =   0.0625000
        k(   23) = (   0.5303301  -0.1767767   0.5303301), wk =   0.0625000
        k(   24) = (   0.5303301   0.5303301  -0.1767767), wk =   0.0625000
        k(   25) = (  -0.5303301   0.5303301   0.1767767), wk =   0.0625000
        k(   26) = (   0.5303301  -0.5303301   0.1767767), wk =   0.0625000
        k(   27) = (  -0.5303301  -0.5303301  -0.1767767), wk =   0.0625000
        k(   28) = (   0.0000000   0.3535534   0.3535534), wk =   0.0625000
        k(   29) = (  -0.3535534   0.0000000  -0.3535534), wk =   0.0625000
        k(   30) = (   0.3535534   0.0000000  -0.3535534), wk =   0.0625000
        k(   31) = (   0.3535534   0.3535534   0.0000000), wk =   0.0625000
        k(   32) = (  -0.3535534   0.3535534   0.0000000), wk =   0.0625000
        k(   33) = (   0.0000000  -0.7071068   0.0000000), wk =   0.0312500
        k(   34) = (   0.0000000   0.0000000  -0.7071068), wk =   0.0312500
        k(   35) = (   0.3535534  -0.7071068   0.0000000), wk =   0.0625000
        k(   36) = (   0.7071068   0.0000000   0.3535534), wk =   0.0625000

     Dense  grid:   175263 G-vectors     FFT dimensions: (  80,  80,  80)

     Smooth grid:    62079 G-vectors     FFT dimensions: (  60,  60,  60)

     Estimated max dynamical RAM per process >     930.95 MB

     Initial potential from superposition of free atoms

     starting charge   63.99105, renormalised to   64.00000
     Starting wfcs are   64 randomized atomic wfcs

     total cpu time spent up to now is       11.0 secs

     Self-consistent Calculation

     iteration #  1     ecut=    36.00 Ry     beta= 0.70
     Davidson diagonalization with overlap
     ethr =  1.00E-02,  avg # of iterations =  3.1

     Threshold (ethr) on eigenvalues was too large:
     Diagonalizing with lowered threshold

     Davidson diagonalization with overlap
     ethr =  6.41E-04,  avg # of iterations =  2.5

     total cpu time spent up to now is       78.8 secs

     total energy              =    -182.68673056 Ry
     estimated scf accuracy    <       0.44677991 Ry

     iteration #  2     ecut=    36.00 Ry     beta= 0.70
     Davidson diagonalization with overlap
     ethr =  6.98E-04,  avg # of iterations =  1.0

     total cpu time spent up to now is      108.6 secs

     total energy              =    -182.70358111 Ry
     estimated scf accuracy    <       0.02122658 Ry

     iteration #  3     ecut=    36.00 Ry     beta= 0.70
     Davidson diagonalization with overlap
     c_bands:  3 eigenvalues not converged
     c_bands:  1 eigenvalues not converged
     c_bands:  2 eigenvalues not converged
     c_bands:  1 eigenvalues not converged
     c_bands:  1 eigenvalues not converged
     c_bands:  2 eigenvalues not converged
     c_bands:  1 eigenvalues not converged
     ethr =  3.32E-05,  avg # of iterations = 13.0

     total cpu time spent up to now is      144.1 secs

     total energy              =    -182.70834897 Ry
     estimated scf accuracy    <       0.00067030 Ry

     iteration #  4     ecut=    36.00 Ry     beta= 0.70
     Davidson diagonalization with overlap
     c_bands:  2 eigenvalues not converged
     ethr =  1.05E-06,  avg # of iterations =  9.9

     total cpu time spent up to now is      171.0 secs

     total energy              =    -182.70864015 Ry
     estimated scf accuracy    <       0.00006876 Ry

     iteration #  5     ecut=    36.00 Ry     beta= 0.70
     Davidson diagonalization with overlap
     c_bands:  1 eigenvalues not converged
     ethr =  1.07E-07,  avg # of iterations =  4.5

     total cpu time spent up to now is      200.0 secs

     total energy              =    -182.70866123 Ry
     estimated scf accuracy    <       0.00000618 Ry

     iteration #  6     ecut=    36.00 Ry     beta= 0.70
     Davidson diagonalization with overlap
     c_bands:  2 eigenvalues not converged
     ethr =  9.65E-09,  avg # of iterations =  5.0

     total cpu time spent up to now is      228.4 secs

     total energy              =    -182.70866339 Ry
     estimated scf accuracy    <       0.00000084 Ry

     iteration #  7     ecut=    36.00 Ry     beta= 0.70
     Davidson diagonalization with overlap
     ethr =  1.31E-09,  avg # of iterations =  3.6

     total cpu time spent up to now is      254.0 secs

     total energy              =    -182.70866347 Ry
     estimated scf accuracy    <       0.00000018 Ry

     iteration #  8     ecut=    36.00 Ry     beta= 0.70
     Davidson diagonalization with overlap
     ethr =  2.81E-10,  avg # of iterations =  3.0

     total cpu time spent up to now is      277.0 secs

     total energy              =    -182.70866351 Ry
     estimated scf accuracy    <          3.7E-09 Ry

     iteration #  9     ecut=    36.00 Ry     beta= 0.70
     Davidson diagonalization with overlap
     ethr =  5.79E-12,  avg # of iterations =  5.7

     total cpu time spent up to now is      308.7 secs

     total energy              =    -182.70866351 Ry
     estimated scf accuracy    <          1.9E-09 Ry

     iteration # 10     ecut=    36.00 Ry     beta= 0.70
     Davidson diagonalization with overlap
     ethr =  3.00E-12,  avg # of iterations =  2.6

     total cpu time spent up to now is      331.2 secs

     total energy              =    -182.70866351 Ry
     estimated scf accuracy    <          1.1E-10 Ry

     iteration # 11     ecut=    36.00 Ry     beta= 0.70
     Davidson diagonalization with overlap
     c_bands:  1 eigenvalues not converged
     ethr =  1.79E-13,  avg # of iterations =  5.5

     total cpu time spent up to now is      366.6 secs

     total energy              =    -182.70866351 Ry
     estimated scf accuracy    <          1.1E-10 Ry

     iteration # 12     ecut=    36.00 Ry     beta= 0.70
     Davidson diagonalization with overlap
     c_bands:  1 eigenvalues not converged
     ethr =  1.69E-13,  avg # of iterations =  2.5

     total cpu time spent up to now is      386.6 secs

     End of self-consistent calculation

          k = 0.0000 0.0000 0.0000 (  7799 PWs)   bands (ev):

    -5.7007  -3.3320  -3.3320  -3.3263  -3.3262  -1.5115  -1.4988  -1.4987
    -1.4987  -1.4987  -1.4859  -0.6812  -0.6812  -0.6691  -0.6691   3.4707
     3.4761   3.4761   3.4761   3.4761   3.4814   5.1479   5.1481   5.1558
     5.1558   5.1609   5.1609   5.1686   5.1688   6.3603   6.3725   6.3847
     7.0458   7.0525   7.0525   7.0525   7.0526   7.0592

          k = 0.1768 0.1768-0.1768 (  7757 PWs)   bands (ev):

    -5.4939  -3.9827  -3.2462  -3.2402  -3.2395  -2.3667  -2.3612  -2.3575
    -0.5043  -0.5005  -0.4932  -0.4515  -0.4508  -0.4386   0.3708   2.8776
     2.8794   2.8840   3.6428   3.6479   3.6485   4.0676   4.0714   4.0746
     4.7706   4.7795   4.7870   4.7875   5.2629   5.2761   6.0682   6.0826
     7.2354   7.2409   7.2410   8.0918   8.3276   8.3300

          k =-0.3536-0.3536 0.3536 (  7744 PWs)   bands (ev):

    -4.8951  -4.8853  -2.9538  -2.9433  -2.9420  -2.9409  -2.9375  -2.9281
    -0.0701  -0.0689  -0.0589  -0.0557  -0.0548  -0.0440   2.4138   2.4212
     2.7817   2.7825   2.7868   2.7884   2.7908   2.8005   4.1175   4.1287
     4.1306   4.1357   4.1366   4.1372   5.5805   5.6040   5.6051   5.6081
     7.8628   7.8739   7.8741   7.8796   7.8803   7.8804

          k = 0.3536 0.0000 0.0000 (  7715 PWs)   bands (ev):

    -5.4241  -3.4970  -3.4970  -3.4891  -3.4891  -3.2732  -1.4299  -1.4174
    -1.4173  -1.4047  -0.0742  -0.0741  -0.0611  -0.0610   0.6018   2.8904
     2.8952   2.8988   2.9035   3.7248   3.7249   3.8750   3.8751   3.8854
     3.8855   5.0504   5.0866   5.0873   5.0921   5.0930   5.5501   5.5504
     6.9627   7.8868   8.3243   8.3339   8.3364   8.3824

          k =-0.1768-0.5303 0.5303 (  7760 PWs)   bands (ev):

    -4.9493  -4.4330  -3.8832  -3.4545  -3.4458  -2.7300  -2.1831  -2.1755
    -0.6095  -0.5980  -0.3258   0.4818   0.4956   1.4075   1.7157   2.2419
     2.2460   2.3202   3.0011   3.0092   3.1387   3.3559   3.3634   3.6642
     4.0250   4.1287   4.4067   4.4124   4.4568   5.0315   5.1107   5.5899
     7.7090   8.2094   8.5239   8.7496   8.7591   9.1393

          k = 0.0000-0.3536 0.3536 (  7746 PWs)   bands (ev):

    -5.1530  -4.1225  -4.1206  -3.0755  -3.0663  -2.7865  -2.7803  -1.9114
    -0.9029  -0.4820  -0.4692   0.3736   0.3865   1.0382   1.0483   1.9936
     2.8747   2.8761   2.9528   2.9562   3.5621   3.5682   3.6806   3.9097
     4.1725   4.1810   4.5138   4.5246   4.7131   4.7602   4.7625   6.0775
     7.5553   8.3095   8.3204   8.6336   8.6350   9.0126

          k =-0.7071 0.0000 0.0000 (  7768 PWs)   bands (ev):

    -4.6042  -4.6041  -3.6313  -3.6313  -3.6224  -3.6223  -1.3397  -1.3276
    -1.3274  -1.3151   0.8533   0.8534   0.8675   0.8675   2.4440   2.4487
     2.4515   2.4558   2.5543   2.5548   2.5586   2.5592   2.8561   2.8564
     4.4509   4.4510   4.4511   4.4512   5.0220   5.0220   5.0285   5.0286
     7.4881   7.4881   8.8300   8.8300   8.8348   8.8348

          k =-0.7071 0.3536 0.0000 (  7788 PWs)   bands (ev):

    -4.3599  -4.3528  -4.3527  -4.3456  -2.5408  -2.5355  -2.5355  -2.5302
    -0.2460  -0.2357  -0.2357  -0.2253   2.0552   2.0649   2.0659   2.0685
     2.0696   2.0721   2.0759   2.0798   3.6115   3.6127   3.6132   3.6150
     3.7381   3.7440   3.7442   3.7504   4.9123   4.9240   4.9241   4.9358
     8.8207   8.8249   8.8252   8.8295   9.2397   9.2467

          k =-0.1768-0.1768-0.1768 (  7757 PWs)   bands (ev):

    -5.4939  -3.9828  -3.2461  -3.2403  -3.2394  -2.3668  -2.3612  -2.3575
    -0.5043  -0.5009  -0.4925  -0.4514  -0.4507  -0.4391   0.3708   2.8776
     2.8794   2.8840   3.6428   3.6479   3.6485   4.0676   4.0715   4.0744
     4.7705   4.7796   4.7860   4.7883   5.2632   5.2761   6.0681   6.0826
     7.2354   7.2409   7.2410   8.0918   8.3274   8.3289

          k =-0.1768 0.1768 0.1768 (  7757 PWs)   bands (ev):

    -5.4937  -3.9802  -3.2462  -3.2454  -3.2395  -2.3670  -2.3634  -2.3578
    -0.5026  -0.4965  -0.4919  -0.4511  -0.4387  -0.4382   0.3615   2.8716
     2.8763   2.8780   3.6475   3.6481   3.6530   4.0596   4.0627   4.0665
     4.7609   4.7880   4.7883   4.7948   5.2664   5.2792   6.0742   6.0887
     7.2415   7.2416   7.2471   8.0950   8.3240   8.3288

          k = 0.1768-0.1768 0.1768 (  7757 PWs)   bands (ev):

    -5.4937  -3.9801  -3.2463  -3.2454  -3.2396  -2.3670  -2.3634  -2.3578
    -0.5033  -0.4959  -0.4920  -0.4506  -0.4389  -0.4383   0.3615   2.8716
     2.8764   2.8780   3.6475   3.6481   3.6530   4.0598   4.0625   4.0666
     4.7609   4.7873   4.7891   4.7949   5.2664   5.2790   6.0742   6.0888
     7.2415   7.2416   7.2471   8.0950   8.3246   8.3297

          k = 0.3536 0.3536 0.3536 (  7744 PWs)   bands (ev):

    -4.8902  -4.8902  -2.9483  -2.9483  -2.9414  -2.9414  -2.9331  -2.9331
    -0.0702  -0.0702  -0.0564  -0.0564  -0.0497  -0.0497   2.4175   2.4175
     2.7820   2.7820   2.7879   2.7879   2.7954   2.7954   4.1259   4.1259
     4.1325   4.1325   4.1346   4.1346   5.5928   5.5928   5.6060   5.6060
     7.8702   7.8702   7.8740   7.8740   7.8814   7.8814

          k = 0.3536-0.3536-0.3536 (  7744 PWs)   bands (ev):

    -4.8894  -4.8894  -2.9502  -2.9502  -2.9418  -2.9418  -2.9349  -2.9349
    -0.0626  -0.0626  -0.0560  -0.0560  -0.0422  -0.0422   2.4092   2.4092
     2.7734   2.7734   2.7807   2.7807   2.7866   2.7866   4.1315   4.1315
     4.1336   4.1336   4.1401   4.1401   5.5970   5.5970   5.6101   5.6101
     7.8737   7.8737   7.8811   7.8811   7.8847   7.8847

          k =-0.3536 0.3536-0.3536 (  7744 PWs)   bands (ev):

    -4.8943  -4.8845  -2.9552  -2.9457  -2.9424  -2.9413  -2.9399  -2.9295
    -0.0683  -0.0576  -0.0566  -0.0534  -0.0435  -0.0422   2.4054   2.4130
     2.7682   2.7781   2.7802   2.7819   2.7861   2.7869   4.1289   4.1294
     4.1304   4.1356   4.1376   4.1486   5.5951   5.5978   5.5989   5.6224
     7.8746   7.8747   7.8755   7.8810   7.8810   7.8923

          k = 0.0000 0.3536 0.0000 (  7715 PWs)   bands (ev):

    -5.4241  -3.4948  -3.4946  -3.4915  -3.4914  -3.2732  -1.4250  -1.4204
    -1.4144  -1.4096  -0.0725  -0.0724  -0.0628  -0.0628   0.6018   2.8923
     2.8956   2.8984   2.9015   3.7248   3.7249   3.8764   3.8765   3.8840
     3.8841   5.0504   5.0882   5.0887   5.0905   5.0916   5.5501   5.5504
     6.9627   7.8868   8.3311   8.3323   8.3387   8.3832

          k = 0.0000 0.0000 0.3536 (  7715 PWs)   bands (ev):

    -5.4241  -3.4954  -3.4952  -3.4909  -3.4907  -3.2730  -1.4175  -1.4174
    -1.4174  -1.4174  -0.0736  -0.0736  -0.0616  -0.0616   0.6018   2.8970
     2.8970   2.8970   2.8970   3.7201   3.7292   3.8777   3.8778   3.8829
     3.8830   5.0523   5.0815   5.0818   5.0965   5.0968   5.5425   5.5581
     6.9626   7.8868   8.3332   8.3335   8.3335   8.3826

          k = 0.1768 0.5303 0.5303 (  7760 PWs)   bands (ev):

    -4.9492  -4.4331  -3.8833  -3.4544  -3.4456  -2.7302  -2.1831  -2.1755
    -0.6096  -0.5979  -0.3256   0.4817   0.4955   1.4076   1.7156   2.2417
     2.2457   2.3208   3.0010   3.0087   3.1392   3.3558   3.3633   3.6642
     4.0252   4.1287   4.4066   4.4124   4.4568   5.0315   5.1108   5.5899
     7.7090   8.2094   8.5239   8.7497   8.7591   9.1393

          k = 0.1768-0.5303-0.5303 (  7760 PWs)   bands (ev):

    -4.9487  -4.4323  -3.8845  -3.4544  -3.4457  -2.7337  -2.1835  -2.1759
    -0.6081  -0.5966  -0.3166   0.4829   0.4967   1.4161   1.7092   2.2377
     2.2421   2.3147   2.9958   3.0041   3.1285   3.3583   3.3658   3.6547
     4.0317   4.1293   4.4107   4.4165   4.4575   5.0304   5.1245   5.5882
     7.7102   8.2098   8.5241   8.7565   8.7658   9.1412

          k =-0.1768 0.5303-0.5303 (  7760 PWs)   bands (ev):

    -4.9487  -4.4323  -3.8843  -3.4546  -3.4458  -2.7335  -2.1835  -2.1759
    -0.6081  -0.5965  -0.3168   0.4830   0.4968   1.4160   1.7092   2.2380
     2.2422   2.3141   2.9963   3.0042   3.1280   3.3584   3.3659   3.6546
     4.0314   4.1293   4.4107   4.4166   4.4575   5.0304   5.1244   5.5882
     7.7102   8.2098   8.5241   8.7565   8.7657   9.1412

          k =-0.5303-0.1768-0.5303 (  7760 PWs)   bands (ev):

    -4.9492  -4.4331  -3.8833  -3.4509  -3.4492  -2.7301  -2.1823  -2.1763
    -0.6089  -0.5986  -0.3256   0.4852   0.4921   1.4075   1.7157   2.2428
     2.2450   2.3203   3.0024   3.0078   3.1388   3.3562   3.3629   3.6642
     4.0251   4.1288   4.4092   4.4098   4.4568   5.0315   5.1108   5.5899
     7.7090   8.2094   8.5238   8.7516   8.7574   9.1392

          k = 0.5303 0.1768-0.5303 (  7760 PWs)   bands (ev):

    -4.9493  -4.4330  -3.8833  -3.4509  -3.4493  -2.7302  -2.1822  -2.1763
    -0.6088  -0.5987  -0.3257   0.4853   0.4921   1.4076   1.7156   2.2429
     2.2445   2.3207   3.0024   3.0073   3.1392   3.3562   3.3629   3.6642
     4.0251   4.1286   4.4092   4.4099   4.4568   5.0315   5.1107   5.5899
     7.7090   8.2094   8.5238   8.7516   8.7573   9.1393

          k =-0.5303 0.1768 0.5303 (  7760 PWs)   bands (ev):

    -4.9487  -4.4323  -3.8844  -3.4509  -3.4493  -2.7336  -2.1827  -2.1767
    -0.6073  -0.5974  -0.3166   0.4865   0.4932   1.4161   1.7092   2.2390
     2.2411   2.3141   2.9975   3.0029   3.1281   3.3588   3.3653   3.6546
     4.0316   4.1294   4.4132   4.4140   4.4575   5.0304   5.1245   5.5882
     7.7102   8.2098   8.5240   8.7586   8.7639   9.1411

          k = 0.5303-0.1768 0.5303 (  7760 PWs)   bands (ev):

    -4.9487  -4.4323  -3.8844  -3.4509  -3.4493  -2.7336  -2.1827  -2.1766
    -0.6074  -0.5973  -0.3167   0.4865   0.4933   1.4161   1.7091   2.2386
     2.2412   2.3146   2.9970   3.0029   3.1285   3.3588   3.3654   3.6547
     4.0315   4.1292   4.4133   4.4140   4.4576   5.0304   5.1244   5.5882
     7.7102   8.2098   8.5239   8.7586   8.7639   9.1412

          k = 0.5303 0.5303-0.1768 (  7760 PWs)   bands (ev):

    -4.9491  -4.4335  -3.8841  -3.4482  -3.4482  -2.7354  -2.1780  -2.1780
    -0.6064  -0.6064  -0.3137   0.4825   0.4825   1.4127   1.7185   2.2452
     2.2455   2.3191   3.0024   3.0024   3.1355   3.3591   3.3591   3.6641
     4.0295   4.1236   4.4179   4.4180   4.4514   5.0243   5.1223   5.5802
     7.7055   8.2032   8.5217   8.7578   8.7578   9.1368

          k =-0.5303 0.5303 0.1768 (  7760 PWs)   bands (ev):

    -4.9489  -4.4318  -3.8836  -3.4520  -3.4519  -2.7282  -2.1811  -2.1811
    -0.5999  -0.5998  -0.3286   0.4961   0.4961   1.4110   1.7062   2.2385
     2.2388   2.3157   3.0029   3.0029   3.1313   3.3627   3.3627   3.6547
     4.0274   4.1339   4.4050   4.4052   4.4628   5.0378   5.1126   5.5980
     7.7137   8.2160   8.5263   8.7578   8.7579   9.1437

          k = 0.5303-0.5303 0.1768 (  7760 PWs)   bands (ev):

    -4.9489  -4.4317  -3.8837  -3.4520  -3.4519  -2.7282  -2.1811  -2.1811
    -0.5999  -0.5998  -0.3286   0.4961   0.4961   1.4110   1.7061   2.2385
     2.2388   2.3157   3.0029   3.0029   3.1313   3.3627   3.3627   3.6547
     4.0274   4.1338   4.4050   4.4052   4.4632   5.0374   5.1126   5.5981
     7.7136   8.2162   8.5261   8.7578   8.7579   9.1438

          k =-0.5303-0.5303-0.1768 (  7760 PWs)   bands (ev):

    -4.9491  -4.4336  -3.8841  -3.4482  -3.4482  -2.7355  -2.1780  -2.1780
    -0.6064  -0.6064  -0.3137   0.4825   0.4825   1.4127   1.7186   2.2452
     2.2455   2.3191   3.0025   3.0025   3.1355   3.3590   3.3591   3.6640
     4.0295   4.1238   4.4179   4.4181   4.4510   5.0246   5.1223   5.5800
     7.7055   8.2030   8.5219   8.7578   8.7579   9.1368

          k = 0.0000 0.3536 0.3536 (  7746 PWs)   bands (ev):

    -5.1530  -4.1226  -4.1207  -3.0752  -3.0661  -2.7868  -2.7806  -1.9114
    -0.9029  -0.4819  -0.4691   0.3735   0.3864   1.0383   1.0483   1.9936
     2.8754   2.8765   2.9523   2.9556   3.5621   3.5682   3.6806   3.9097
     4.1724   4.1808   4.5140   4.5248   4.7140   4.7599   4.7617   6.0775
     7.5553   8.3095   8.3204   8.6336   8.6350   9.4688

          k =-0.3536 0.0000-0.3536 (  7746 PWs)   bands (ev):

    -5.1530  -4.1226  -4.1206  -3.0709  -3.0707  -2.7867  -2.7804  -1.9114
    -0.9029  -0.4820  -0.4692   0.3800   0.3801   1.0383   1.0483   1.9936
     2.8749   2.8764   2.9541   2.9544   3.5651   3.5652   3.6806   3.9097
     4.1724   4.1809   4.5140   4.5247   4.7135   4.7604   4.7617   6.0775
     7.5553   8.3149   8.3149   8.6336   8.6349   9.0116

          k = 0.3536 0.0000-0.3536 (  7746 PWs)   bands (ev):

    -5.1530  -4.1225  -4.1207  -3.0709  -3.0707  -2.7866  -2.7805  -1.9114
    -0.9029  -0.4820  -0.4692   0.3800   0.3801   1.0383   1.0483   1.9936
     2.8753   2.8760   2.9541   2.9544   3.5651   3.5652   3.6806   3.9097
     4.1725   4.1808   4.5138   4.5249   4.7136   4.7599   4.7622   6.0775
     7.5553   8.3149   8.3149   8.6335   8.6350   9.0116

          k = 0.3536 0.3536 0.0000 (  7746 PWs)   bands (ev):

    -5.1533  -4.1223  -4.1222  -3.0692  -3.0691  -2.7812  -2.7811  -1.9176
    -0.8948  -0.4816  -0.4816   0.3746   0.3746   1.0465   1.0465   1.9969
     2.8823   2.8824   2.9545   2.9545   3.5697   3.5698   3.6896   3.9047
     4.1731   4.1731   4.5237   4.5237   4.7125   4.7542   4.7544   6.0666
     7.5491   8.3131   8.3131   8.6296   8.6298   9.0125

          k =-0.3536 0.3536 0.0000 (  7746 PWs)   bands (ev):

    -5.1526  -4.1210  -4.1209  -3.0722  -3.0722  -2.7861  -2.7861  -1.9051
    -0.9108  -0.4697  -0.4697   0.3855   0.3856   1.0401   1.0401   1.9902
     2.8692   2.8694   2.9536   2.9536   3.5605   3.5605   3.6720   3.9145
     4.1803   4.1803   4.5154   4.5154   4.7155   4.7668   4.7670   6.0883
     7.5615   8.3169   8.3169   8.6388   8.6390   9.0108

          k = 0.0000-0.7071 0.0000 (  7768 PWs)   bands (ev):

    -4.6041  -4.6041  -3.6269  -3.6269  -3.6268  -3.6268  -1.3336  -1.3336
    -1.3213  -1.3213   0.8604   0.8604   0.8605   0.8605   2.4463   2.4463
     2.4536   2.4536   2.5566   2.5566   2.5569   2.5569   2.8563   2.8563
     4.4510   4.4510   4.4511   4.4511   5.0252   5.0252   5.0253   5.0253
     7.4881   7.4881   8.8324   8.8324   8.8325   8.8325

          k = 0.0000 0.0000-0.7071 (  7768 PWs)   bands (ev):

    -4.6041  -4.6041  -3.6287  -3.6287  -3.6250  -3.6250  -1.3275  -1.3275
    -1.3275  -1.3275   0.8523   0.8523   0.8686   0.8686   2.4501   2.4501
     2.4502   2.4502   2.5560   2.5560   2.5573   2.5573   2.8563   2.8563
     4.4454   4.4454   4.4563   4.4563   5.0181   5.0181   5.0325   5.0325
     7.4881   7.4881   8.8258   8.8258   8.8391   8.8391

          k = 0.3536-0.7071 0.0000 (  7788 PWs)   bands (ev):

    -4.3582  -4.3574  -4.3481  -4.3473  -2.5406  -2.5370  -2.5341  -2.5304
    -0.2457  -0.2381  -0.2334  -0.2255   2.0554   2.0635   2.0667   2.0676
     2.0706   2.0722   2.0764   2.0794   3.6115   3.6126   3.6134   3.6149
     3.7381   3.7436   3.7446   3.7504   4.9128   4.9208   4.9273   4.9354
     8.8211   8.8233   8.8269   8.8291   9.2411   9.2492

          k = 0.7071 0.0000 0.3536 (  7788 PWs)   bands (ev):

    -4.3594  -4.3528  -4.3527  -4.3461  -2.5459  -2.5355  -2.5355  -2.5251
    -0.2417  -0.2357  -0.2357  -0.2296   2.0576   2.0619   2.0656   2.0681
     2.0706   2.0719   2.0764   2.0793   3.6045   3.6130   3.6130   3.6220
     3.7372   3.7441   3.7444   3.7512   4.9209   4.9241   4.9241   4.9273
     8.8179   8.8251   8.8252   8.8324   9.2389   9.2477

     the Fermi energy is     6.6580 ev

!    total energy              =    -182.70866351 Ry
     estimated scf accuracy    <          1.1E-11 Ry
     smearing contrib. (-TS)   =      -0.00000701 Ry
     internal energy E=F+TS    =    -182.70865651 Ry

     The total energy is F=E-TS. E is the sum of the following terms:
     one-electron contribution =      42.31707690 Ry
     hartree contribution      =       8.69858761 Ry
     xc contribution           =     -98.63147420 Ry
     ewald contribution        =    -135.09284682 Ry

     convergence has been achieved in  12 iterations

     Forces acting on atoms (cartesian axes, Ry/au):

     atom    1 type  1   force =     0.00000114   -0.00020233    0.00539654
     atom    2 type  1   force =     0.00002440   -0.00196090   -0.00284002
     atom    3 type  1   force =     0.00000125   -0.00020224    0.00539651
     atom    4 type  1   force =     0.00002439   -0.00196098   -0.00284027
     atom    5 type  1   force =    -0.00020240    0.00000055    0.00015832
     atom    6 type  1   force =    -0.00094232    0.00104305   -0.00137604
     atom    7 type  1   force =    -0.00020240    0.00000059    0.00015832
     atom    8 type  1   force =    -0.00094228    0.00104309   -0.00137591
     atom    9 type  1   force =     0.00020210   -0.00000051    0.00015793
     atom   10 type  1   force =     0.00091756    0.00101902   -0.00136277
     atom   11 type  1   force =     0.00020219   -0.00000064    0.00015787
     atom   12 type  1   force =     0.00091760    0.00101892   -0.00136298
     atom   13 type  1   force =    -0.00000065    0.00020237   -0.00023502
     atom   14 type  1   force =    -0.00000001   -0.00010109    0.00010125
     atom   15 type  1   force =    -0.00000066    0.00020217   -0.00023510
     atom   16 type  1   force =     0.00000010   -0.00010108    0.00010137

     Total force =     0.009893     Total SCF correction =     0.000006

     Writing output data file ./results/fc3_disp.save/

     init_run     :     92.51s CPU     10.98s WALL (       1 calls)
     electrons    :   4213.91s CPU    375.58s WALL (       1 calls)
     forces       :     42.13s CPU      3.66s WALL (       1 calls)

     Called by init_run:
     wfcinit      :     91.44s CPU     10.03s WALL (       1 calls)
     potinit      :      0.27s CPU      0.32s WALL (       1 calls)
     hinit0       :      0.18s CPU      0.20s WALL (       1 calls)

     Called by electrons:
     c_bands      :   3385.22s CPU    308.15s WALL (      13 calls)
     sum_band     :    817.72s CPU     59.03s WALL (      13 calls)
     v_of_rho     :      2.92s CPU      3.25s WALL (      13 calls)
     newd         :      7.85s CPU      5.06s WALL (      13 calls)
     mix_rho      :      0.45s CPU      0.45s WALL (      13 calls)

     Called by c_bands:
     init_us_2    :    152.26s CPU      9.96s WALL (    1008 calls)
     cegterg      :   2862.26s CPU    245.13s WALL (     468 calls)

     Called by *egterg:
     cdiaghg      :    108.04s CPU      7.04s WALL (    2662 calls)
     h_psi        :   2238.80s CPU    207.13s WALL (    2734 calls)
     s_psi        :    136.04s CPU      9.08s WALL (    2734 calls)
     g_psi        :     56.64s CPU      3.72s WALL (    2230 calls)

     Called by h_psi:
     h_psi:calbec :    802.17s CPU     56.16s WALL (    2734 calls)
     vloc_psi     :   1285.11s CPU    140.55s WALL (    2734 calls)
     add_vuspsi   :    136.73s CPU      9.08s WALL (    2734 calls)

     General routines
     calbec       :   1088.53s CPU     76.02s WALL (    3346 calls)
     fft          :      3.58s CPU      3.09s WALL (     179 calls)
     ffts         :      0.47s CPU      0.05s WALL (      26 calls)
     fftw         :   1464.13s CPU    145.95s WALL (  127330 calls)
     interpolate  :      0.25s CPU      0.25s WALL (      13 calls)

     Parallel routines

     PWSCF        :      1h12m CPU   6m30.40s WALL


   This run was terminated on:  20: 2:39  25Mar2026            

=------------------------------------------------------------------------------=
   JOB DONE.
=------------------------------------------------------------------------------=
