
     Program PWSCF v.7.3.1 starts on 25Mar2026 at 17:30:12 

     This program is part of the open-source Quantum ESPRESSO suite
     for quantum simulation of materials; please cite
         "P. Giannozzi et al., J. Phys.:Condens. Matter 21 395502 (2009);
         "P. Giannozzi et al., J. Phys.:Condens. Matter 29 465901 (2017);
         "P. Giannozzi et al., J. Chem. Phys. 152 154105 (2020);
          URL http://www.quantum-espresso.org", 
     in publications or presentations arising from this work. More details at
     http://www.quantum-espresso.org/quote

     Parallel version (MPI), running on    28 processors

     MPI processes distributed on     1 nodes
     496744 MiB available memory on the printing compute node when the environment starts

     Waiting for input...
     Reading input from standard input

     Current dimensions of program PWSCF are:
     Max number of different atomic species (ntypx) = 10
     Max number of k-points (npk) =  40000
     Max angular momentum in pseudopotentials (lmaxx) =  4

     R & G space division:  proc/nbgrp/npool/nimage =      28
     Subspace diagonalization in iterative solution of the eigenvalue problem:
     one sub-group per band group will be used
     custom distributed-memory algorithm (size of sub-group:  2*  2 procs)


     Parallelization info
     --------------------
     sticks:   dense  smooth     PW     G-vecs:    dense   smooth      PW
     Min         378     189     51                29374    10383    1469
     Max         379     190     53                29379    10388    1472
     Sum       10605    5297   1449               822577   290795   41155

     Using Slab Decomposition



     bravais-lattice index     =            0
     lattice parameter (alat)  =      20.4158  a.u.
     unit-cell volume          =    8509.4617 (a.u.)^3
     number of atoms/cell      =           64
     number of atomic types    =            2
     number of electrons       =       256.00
     number of Kohn-Sham states=          154
     kinetic-energy cutoff     =      40.0000  Ry
     charge density cutoff     =     320.0000  Ry
     scf convergence threshold =      1.0E-10
     mixing beta               =       0.7000
     number of iterations used =            8  plain     mixing
     Exchange-correlation= PBE
                           (   1   4   3   4   0   0   0)

     celldm(1)=  20.415845  celldm(2)=   0.000000  celldm(3)=   0.000000
     celldm(4)=   0.000000  celldm(5)=   0.000000  celldm(6)=   0.000000

     crystal axes: (cart. coord. in units of alat)
               a(1) = (   1.000000   0.000000   0.000000 )  
               a(2) = (   0.000000   1.000000   0.000000 )  
               a(3) = (   0.000000   0.000000   1.000000 )  

     reciprocal axes: (cart. coord. in units 2 pi/alat)
               b(1) = (  1.000000  0.000000  0.000000 )  
               b(2) = (  0.000000  1.000000  0.000000 )  
               b(3) = (  0.000000  0.000000  1.000000 )  


     PseudoPot. # 1 for Si read from file:
     ./pseudo/Si.pbe-n-rrkjus_psl.1.0.0.UPF
     MD5 check sum: fa25574f73a70a4139f2adfbefec430c
     Pseudo is Ultrasoft + core correction, Zval =  4.0
     Generated using &quot;atomic&quot; code by A. Dal Corso  v.6.3
     Using radial grid of 1141 points,  6 beta functions with: 
                l(1) =   0
                l(2) =   0
                l(3) =   1
                l(4) =   1
                l(5) =   2
                l(6) =   2
     Q(r) pseudized with 0 coefficients 


     PseudoPot. # 2 for Ge read from file:
     ./pseudo/Ge.pbe-n-rrkjus_psl.1.0.0.UPF
     MD5 check sum: a23a7f3f7456476e534e54484b27d8e8
     Pseudo is Ultrasoft + core correction, Zval =  4.0
     Generated using &quot;atomic&quot; code by A. Dal Corso  v.6.3
     Using radial grid of 1207 points,  4 beta functions with: 
                l(1) =   0
                l(2) =   0
                l(3) =   1
                l(4) =   1
     Q(r) pseudized with 0 coefficients 


     atomic species   valence    mass     pseudopotential
     Si                4.00    28.08500     Si( 1.00)
     Ge                4.00    72.63000     Ge( 1.00)

     No symmetry found



   Cartesian axes

     site n.     atom                  positions (alat units)
         1        Si     tau(   1) = (   0.0000000   0.0000000   0.0000000  )
         2        Si     tau(   2) = (   0.5000000   0.0000000   0.0000000  )
         3        Si     tau(   3) = (   0.0000000   0.5000000   0.0000000  )
         4        Si     tau(   4) = (   0.5000000   0.5000000   0.0000000  )
         5        Si     tau(   5) = (   0.0000000   0.0000000   0.5000000  )
         6        Si     tau(   6) = (   0.5000000   0.0000000   0.5000000  )
         7        Si     tau(   7) = (   0.0000000   0.5000000   0.5000000  )
         8        Si     tau(   8) = (   0.5000000   0.5000000   0.5000000  )
         9        Si     tau(   9) = (   0.2500000   0.2500000   0.0000000  )
        10        Si     tau(  10) = (   0.7500000   0.2500000   0.0000000  )
        11        Si     tau(  11) = (   0.2500000   0.7500000   0.0000000  )
        12        Si     tau(  12) = (   0.7500000   0.7500000   0.0000000  )
        13        Si     tau(  13) = (   0.2500000   0.2500000   0.5000000  )
        14        Si     tau(  14) = (   0.7500000   0.2500000   0.5000000  )
        15        Si     tau(  15) = (   0.2500000   0.7500000   0.5000000  )
        16        Si     tau(  16) = (   0.7500000   0.7500000   0.5000000  )
        17        Ge     tau(  17) = (   0.2493455   0.0000000   0.2493455  )
        18        Ge     tau(  18) = (   0.7500000   0.0000000   0.2500000  )
        19        Ge     tau(  19) = (   0.2500000   0.5000000   0.2500000  )
        20        Ge     tau(  20) = (   0.7500000   0.5000000   0.2500000  )
        21        Ge     tau(  21) = (   0.2500000   0.0000000   0.7500000  )
        22        Ge     tau(  22) = (   0.7500000   0.0000000   0.7500000  )
        23        Ge     tau(  23) = (   0.2500000   0.5000000   0.7500000  )
        24        Ge     tau(  24) = (   0.7500000   0.5000000   0.7500000  )
        25        Ge     tau(  25) = (   0.0000000   0.2500000   0.2500000  )
        26        Ge     tau(  26) = (   0.5000000   0.2500000   0.2500000  )
        27        Ge     tau(  27) = (   0.0000000   0.7500000   0.2500000  )
        28        Ge     tau(  28) = (   0.5000000   0.7500000   0.2500000  )
        29        Ge     tau(  29) = (   0.0000000   0.2500000   0.7500000  )
        30        Ge     tau(  30) = (   0.5000000   0.2500000   0.7500000  )
        31        Ge     tau(  31) = (   0.0000000   0.7500000   0.7500000  )
        32        Ge     tau(  32) = (   0.5000000   0.7500000   0.7500000  )
        33        Si     tau(  33) = (   0.1250000   0.1250000   0.1250000  )
        34        Si     tau(  34) = (   0.6250000   0.1250000   0.1250000  )
        35        Si     tau(  35) = (   0.1250000   0.6250000   0.1250000  )
        36        Si     tau(  36) = (   0.6250000   0.6250000   0.1250000  )
        37        Si     tau(  37) = (   0.1250000   0.1250000   0.6250000  )
        38        Si     tau(  38) = (   0.6250000   0.1250000   0.6250000  )
        39        Si     tau(  39) = (   0.1250000   0.6250000   0.6250000  )
        40        Si     tau(  40) = (   0.6250000   0.6250000   0.6250000  )
        41        Si     tau(  41) = (   0.3750000   0.3750000   0.1250000  )
        42        Si     tau(  42) = (   0.8750000   0.3750000   0.1250000  )
        43        Si     tau(  43) = (   0.3750000   0.8750000   0.1250000  )
        44        Si     tau(  44) = (   0.8750000   0.8750000   0.1250000  )
        45        Si     tau(  45) = (   0.3750000   0.3750000   0.6250000  )
        46        Si     tau(  46) = (   0.8750000   0.3750000   0.6250000  )
        47        Si     tau(  47) = (   0.3750000   0.8750000   0.6250000  )
        48        Si     tau(  48) = (   0.8750000   0.8750000   0.6250000  )
        49        Ge     tau(  49) = (   0.3750000   0.1250000   0.3750000  )
        50        Ge     tau(  50) = (   0.8750000   0.1250000   0.3750000  )
        51        Ge     tau(  51) = (   0.3750000   0.6250000   0.3750000  )
        52        Ge     tau(  52) = (   0.8750000   0.6250000   0.3750000  )
        53        Ge     tau(  53) = (   0.3750000   0.1250000   0.8750000  )
        54        Ge     tau(  54) = (   0.8750000   0.1250000   0.8750000  )
        55        Ge     tau(  55) = (   0.3750000   0.6250000   0.8750000  )
        56        Ge     tau(  56) = (   0.8750000   0.6250000   0.8750000  )
        57        Ge     tau(  57) = (   0.1250000   0.3750000   0.3750000  )
        58        Ge     tau(  58) = (   0.6250000   0.3750000   0.3750000  )
        59        Ge     tau(  59) = (   0.1250000   0.8750000   0.3750000  )
        60        Ge     tau(  60) = (   0.6250000   0.8750000   0.3750000  )
        61        Ge     tau(  61) = (   0.1250000   0.3750000   0.8750000  )
        62        Ge     tau(  62) = (   0.6250000   0.3750000   0.8750000  )
        63        Ge     tau(  63) = (   0.1250000   0.8750000   0.8750000  )
        64        Ge     tau(  64) = (   0.6250000   0.8750000   0.8750000  )

     number of k points=    36  Gaussian smearing, width (Ry)=  0.0100
                       cart. coord. in units 2pi/alat
        k(    1) = (   0.0000000   0.0000000   0.0000000), wk =   0.0312500
        k(    2) = (   0.0000000   0.0000000   0.2500000), wk =   0.0625000
        k(    3) = (   0.0000000   0.0000000  -0.5000000), wk =   0.0312500
        k(    4) = (   0.0000000   0.2500000   0.2500000), wk =   0.0625000
        k(    5) = (   0.0000000   0.2500000  -0.5000000), wk =   0.0625000
        k(    6) = (   0.0000000  -0.5000000  -0.5000000), wk =   0.0312500
        k(    7) = (   0.2500000   0.2500000   0.2500000), wk =   0.0625000
        k(    8) = (   0.2500000   0.2500000  -0.5000000), wk =   0.0625000
        k(    9) = (   0.2500000  -0.5000000  -0.5000000), wk =   0.0625000
        k(   10) = (  -0.5000000  -0.5000000  -0.5000000), wk =   0.0312500
        k(   11) = (   0.2500000   0.0000000   0.0000000), wk =   0.0625000
        k(   12) = (   0.0000000   0.2500000   0.0000000), wk =   0.0625000
        k(   13) = (  -0.5000000   0.0000000   0.0000000), wk =   0.0312500
        k(   14) = (   0.0000000  -0.5000000   0.0000000), wk =   0.0312500
        k(   15) = (   0.0000000  -0.2500000   0.2500000), wk =   0.0625000
        k(   16) = (   0.2500000   0.0000000  -0.2500000), wk =   0.0625000
        k(   17) = (  -0.2500000   0.0000000  -0.2500000), wk =   0.0625000
        k(   18) = (   0.2500000  -0.2500000   0.0000000), wk =   0.0625000
        k(   19) = (  -0.2500000  -0.2500000   0.0000000), wk =   0.0625000
        k(   20) = (   0.2500000   0.0000000   0.5000000), wk =   0.0625000
        k(   21) = (  -0.5000000  -0.2500000   0.0000000), wk =   0.0625000
        k(   22) = (   0.0000000  -0.5000000   0.2500000), wk =   0.0625000
        k(   23) = (   0.2500000  -0.5000000   0.0000000), wk =   0.0625000
        k(   24) = (  -0.5000000   0.0000000   0.2500000), wk =   0.0625000
        k(   25) = (  -0.5000000   0.0000000   0.5000000), wk =   0.0312500
        k(   26) = (  -0.5000000   0.5000000   0.0000000), wk =   0.0312500
        k(   27) = (  -0.2500000  -0.2500000   0.2500000), wk =   0.0625000
        k(   28) = (  -0.2500000   0.2500000  -0.2500000), wk =   0.0625000
        k(   29) = (   0.2500000  -0.2500000  -0.2500000), wk =   0.0625000
        k(   30) = (  -0.2500000   0.2500000   0.5000000), wk =   0.0625000
        k(   31) = (  -0.5000000  -0.2500000   0.2500000), wk =   0.0625000
        k(   32) = (   0.5000000  -0.2500000  -0.2500000), wk =   0.0625000
        k(   33) = (  -0.2500000  -0.5000000   0.2500000), wk =   0.0625000
        k(   34) = (  -0.2500000   0.5000000  -0.2500000), wk =   0.0625000
        k(   35) = (  -0.5000000   0.2500000   0.5000000), wk =   0.0625000
        k(   36) = (  -0.5000000   0.5000000   0.2500000), wk =   0.0625000

     Dense  grid:   822577 G-vectors     FFT dimensions: ( 120, 120, 120)

     Smooth grid:   290795 G-vectors     FFT dimensions: (  90,  90,  90)

     Estimated max dynamical RAM per process >     275.99 MB

     Estimated total dynamical RAM >       7.55 GB

     Initial potential from superposition of free atoms

     starting charge     255.9576, renormalised to     256.0000
     Starting wfcs are  256 randomized atomic wfcs

     total cpu time spent up to now is      138.2 secs

     per-process dynamical memory:   189.1 Mb

     Self-consistent Calculation

     iteration #  1     ecut=    40.00 Ry     beta= 0.70
     Davidson diagonalization with overlap
     ethr =  1.00E-02,  avg # of iterations =  3.2

     Threshold (ethr) on eigenvalues was too large:
     Diagonalizing with lowered threshold

     Davidson diagonalization with overlap
     ethr =  5.56E-04,  avg # of iterations =  2.8

     total cpu time spent up to now is      657.2 secs

     total energy              =    -742.01703607 Ry
     estimated scf accuracy    <       1.52715306 Ry

     iteration #  2     ecut=    40.00 Ry     beta= 0.70
     Davidson diagonalization with overlap
     ethr =  5.97E-04,  avg # of iterations =  1.3

     total cpu time spent up to now is      862.0 secs

     total energy              =    -742.08546861 Ry
     estimated scf accuracy    <       0.07732290 Ry

     iteration #  3     ecut=    40.00 Ry     beta= 0.70
     Davidson diagonalization with overlap
     c_bands:  1 eigenvalues not converged
     c_bands:  1 eigenvalues not converged
     c_bands:  2 eigenvalues not converged
     c_bands:  1 eigenvalues not converged
     c_bands:  1 eigenvalues not converged
     c_bands:  2 eigenvalues not converged
     c_bands:  1 eigenvalues not converged
     c_bands:  3 eigenvalues not converged
     ethr =  3.02E-05,  avg # of iterations = 14.3

     total cpu time spent up to now is     1242.6 secs

     total energy              =    -742.09753363 Ry
     estimated scf accuracy    <       0.00750919 Ry

     iteration #  4     ecut=    40.00 Ry     beta= 0.70
     Davidson diagonalization with overlap
     c_bands:  1 eigenvalues not converged
     c_bands:  4 eigenvalues not converged
     c_bands:  2 eigenvalues not converged
     c_bands:  2 eigenvalues not converged
     c_bands:  2 eigenvalues not converged
     c_bands:  4 eigenvalues not converged
     c_bands:  3 eigenvalues not converged
     c_bands:  2 eigenvalues not converged
     c_bands:  5 eigenvalues not converged
     c_bands:  1 eigenvalues not converged
     c_bands:  1 eigenvalues not converged
     c_bands:  3 eigenvalues not converged
     c_bands:  3 eigenvalues not converged
     ethr =  2.93E-06,  avg # of iterations = 13.6

     total cpu time spent up to now is     1610.2 secs

     total energy              =    -742.09990558 Ry
     estimated scf accuracy    <       0.00135823 Ry

     iteration #  5     ecut=    40.00 Ry     beta= 0.70
     Davidson diagonalization with overlap
     c_bands:  2 eigenvalues not converged
     c_bands:  2 eigenvalues not converged
     c_bands:  3 eigenvalues not converged
     ethr =  5.31E-07,  avg # of iterations =  5.8

     total cpu time spent up to now is     1895.3 secs

     total energy              =    -742.10020639 Ry
     estimated scf accuracy    <       0.00007482 Ry

     iteration #  6     ecut=    40.00 Ry     beta= 0.70
     Davidson diagonalization with overlap
     c_bands:  5 eigenvalues not converged
     ethr =  2.92E-08,  avg # of iterations =  4.6

     total cpu time spent up to now is     2185.3 secs

     total energy              =    -742.10022354 Ry
     estimated scf accuracy    <       0.00004912 Ry

     iteration #  7     ecut=    40.00 Ry     beta= 0.70
     Davidson diagonalization with overlap
     c_bands:  3 eigenvalues not converged
     ethr =  1.92E-08,  avg # of iterations =  2.5

     total cpu time spent up to now is     2428.8 secs

     total energy              =    -742.10023087 Ry
     estimated scf accuracy    <       0.00000504 Ry

     iteration #  8     ecut=    40.00 Ry     beta= 0.70
     Davidson diagonalization with overlap
     ethr =  1.97E-09,  avg # of iterations =  3.4

     total cpu time spent up to now is     2695.6 secs

     total energy              =    -742.10023245 Ry
     estimated scf accuracy    <       0.00000034 Ry

     iteration #  9     ecut=    40.00 Ry     beta= 0.70
     Davidson diagonalization with overlap
     ethr =  1.32E-10,  avg # of iterations =  4.0

     total cpu time spent up to now is     3000.3 secs

     total energy              =    -742.10023251 Ry
     estimated scf accuracy    <       0.00000020 Ry

     iteration # 10     ecut=    40.00 Ry     beta= 0.70
     Davidson diagonalization with overlap
     ethr =  7.66E-11,  avg # of iterations =  2.5

     total cpu time spent up to now is     3249.7 secs

     total energy              =    -742.10023253 Ry
     estimated scf accuracy    <       0.00000013 Ry

     iteration # 11     ecut=    40.00 Ry     beta= 0.70
     Davidson diagonalization with overlap
     ethr =  5.24E-11,  avg # of iterations =  2.1

     total cpu time spent up to now is     3491.3 secs

     total energy              =    -742.10023255 Ry
     estimated scf accuracy    <       0.00000001 Ry

     iteration # 12     ecut=    40.00 Ry     beta= 0.70
     Davidson diagonalization with overlap
     ethr =  5.12E-12,  avg # of iterations =  3.8

     total cpu time spent up to now is     3757.5 secs

     total energy              =    -742.10023255 Ry
     estimated scf accuracy    <          2.4E-09 Ry

     iteration # 13     ecut=    40.00 Ry     beta= 0.70
     Davidson diagonalization with overlap
     ethr =  9.54E-13,  avg # of iterations =  3.9

     total cpu time spent up to now is     4037.2 secs

     total energy              =    -742.10023255 Ry
     estimated scf accuracy    <          1.6E-09 Ry

     iteration # 14     ecut=    40.00 Ry     beta= 0.70
     Davidson diagonalization with overlap
     ethr =  6.17E-13,  avg # of iterations =  2.0

     total cpu time spent up to now is     4274.8 secs

     total energy              =    -742.10023255 Ry
     estimated scf accuracy    <          2.9E-10 Ry

     iteration # 15     ecut=    40.00 Ry     beta= 0.70
     Davidson diagonalization with overlap
     ethr =  1.13E-13,  avg # of iterations =  2.0

     total cpu time spent up to now is     4532.3 secs

     End of self-consistent calculation

          k = 0.0000 0.0000 0.0000 ( 36377 PWs)   bands (ev):

    -6.1612  -5.3659  -5.0573  -5.0562  -5.0562  -5.0543  -4.6261  -4.4914
    -4.3819  -4.3813  -4.3812  -4.3779  -4.2565  -4.0344  -4.0329  -3.7629
    -3.7613  -3.6424  -3.6403  -3.6401  -3.6399  -3.4923  -3.1482  -2.2476
    -2.2456  -2.1088  -2.1068  -1.8139  -1.7301  -1.6781  -1.6752  -1.6750
    -1.6743  -1.5609  -1.5603  -1.5602  -1.5578  -1.3425  -1.3417  -1.1635
    -1.1626  -1.0085  -0.7558  -0.7545  -0.6177   0.3201   0.4852   0.4860
     0.4862   0.4879   0.7409   0.7421   0.9374   0.9383   0.9385   0.9395
     1.0685   2.5046   2.5761   2.5763   2.6024   2.6034   2.6040   2.6043
     2.6049   2.6052   2.6058   2.6068   2.6335   2.6343   2.6854   2.6856
     2.6858   2.6862   2.6873   2.6961   2.6969   2.7143   2.7153   2.7159
     2.7166   2.7173   2.8105   2.8121   2.8122   2.8135   3.0729   3.6363
     3.6367   3.6432   3.6459   3.6532   3.6539   4.6247   4.6733   4.7096
     4.7112   4.7116   4.7116   4.7118   4.7119   4.7124   4.7139   4.7516
     4.7986   5.2548   5.3047   5.3058   5.3061   5.3068   5.3226   5.3245
     5.3389   5.3403   5.3413   5.3416   5.3597   5.3898   5.3947   5.4552
     5.4559   5.4582   5.4598   5.5259   5.5642   6.8175   6.8559   6.8593
     7.2814   7.2825   7.3849   7.4931   7.5785   7.6153   7.6166   7.6539
     7.8442   7.8455   7.8456   7.8467   8.0205   8.0209   8.0441   8.4651
     9.0037   9.0423   9.0430   9.0434   9.0437   9.2261   9.2277   9.4282
     9.4342   9.4386

          k = 0.0000 0.0000 0.2500 ( 36317 PWs)   bands (ev):

    -6.0945  -5.5968  -4.9975  -4.9965  -4.9965  -4.9946  -4.5652  -4.5644
    -4.5644  -4.5619  -4.4609  -4.2956  -4.2638  -3.9999  -3.9984  -3.8091
    -3.8076  -3.4507  -3.3640  -3.3624  -3.3623  -3.3618  -3.2101  -2.7287
    -2.2305  -2.2282  -2.2280  -2.2279  -2.2278  -2.2254  -2.1304  -2.1284
    -1.3185  -1.3177  -1.1922  -1.1913  -1.0343  -1.0331  -1.0330  -1.0318
    -0.8594  -0.7231  -0.5932  -0.5920  -0.4350   0.0419   0.0725   0.0738
     0.0740   0.0753   0.4057   0.4070   0.6719   1.3816   1.3830   1.3831
     1.3844   1.5524   2.2705   2.2710   2.2713   2.2716   2.3569   2.3572
     2.3576   2.3580   2.5610   2.5625   2.5626   2.5636   2.7011   2.7015
     2.7562   2.7569   3.1204   3.1471   3.1481   3.1828   3.1869   3.1877
     3.1878   3.1886   3.2029   3.2035   3.2038   3.2045   3.4454   3.4461
     3.4537   3.4542   3.7112   3.7141   4.0332   4.2452   4.2519   4.4150
     4.4160   4.4161   4.4170   4.7580   4.7591   4.7591   4.7602   4.8846
     4.8852   4.8854   4.8860   4.9703   4.9760   4.9767   4.9777   5.2694
     5.2819   5.2871   5.3413   5.3432   5.3436   5.4133   5.4303   5.4314
     5.4318   5.4327   5.4372   5.4388   5.5366   6.2763   6.5460   6.5489
     7.2641   7.4673   7.6850   7.6862   7.7954   7.9778   7.9791   8.1116
     8.2750   8.2761   8.2765   8.2773   8.3287   8.4351   8.4357   8.7400
     9.0259   9.1149   9.1623   9.1632   9.1633   9.1639   9.2162   9.2175
     9.3013   9.3715

          k = 0.0000 0.0000-0.5000 ( 36434 PWs)   bands (ev):

    -5.8989  -5.8978  -4.8252  -4.8232  -4.8231  -4.8231  -4.8229  -4.8227
    -4.8227  -4.8184  -4.3834  -4.3816  -3.9112  -3.9096  -3.9095  -3.9081
    -3.5713  -3.5697  -3.3406  -3.3397  -2.8332  -2.8295  -2.8293  -2.8292
    -2.8291  -2.8289  -2.8288  -2.8268  -2.1812  -2.1802  -2.1802  -2.1772
    -1.2585  -1.2570  -1.2568  -1.2566  -0.4796  -0.4767  -0.4766  -0.4764
    -0.4762  -0.4760  -0.4759  -0.4732  -0.4619  -0.4603  -0.1591  -0.1585
    -0.1583  -0.1562   0.0446   0.0459   0.3940   0.3950   1.9885   1.9911
     1.9912   1.9913   1.9915   1.9917   1.9924   1.9947   2.2147   2.2150
     2.2157   2.2165   2.2165   2.2168   2.2171   2.2177   3.0358   3.0360
     3.0363   3.0370   3.0768   3.0775   3.0779   3.0784   3.8098   3.8106
     3.8111   3.8114   3.8116   3.8121   3.8128   3.8136   3.9129   3.9142
     3.9168   3.9181   3.9565   3.9568   3.9578   3.9583   3.9583   3.9586
     3.9594   3.9599   3.9990   3.9997   4.0486   4.0493   4.0498   4.0507
     4.0965   4.0976   5.2053   5.2067   5.2076   5.2080   5.2086   5.2088
     5.2088   5.2090   5.2097   5.2112   5.3055   5.3060   5.3864   5.3894
     5.3895   5.3901   5.4715   5.4747   5.9230   5.9253   5.9259   5.9281
     7.2923   7.2933   8.3055   8.3061   8.6860   8.6874   8.6881   8.6887
     8.8875   8.8886   8.9007   8.9013   8.9016   8.9032   8.9419   8.9432
     9.0167   9.0173   9.0293   9.0308   9.0311   9.0314   9.2535   9.2557
     9.2558   9.2562

          k = 0.0000 0.2500 0.2500 ( 36395 PWs)   bands (ev):

    -6.0248  -5.5305  -5.4723  -5.0082  -4.9535  -4.9207  -4.5914  -4.5489
    -4.4875  -4.4136  -4.3964  -4.3501  -4.2041  -4.0791  -4.0141  -3.7414
    -3.5781  -3.5052  -3.3955  -3.3120  -3.2403  -3.2147  -2.9166  -2.9111
    -2.7187  -2.6885  -2.4906  -2.4104  -2.3884  -2.0690  -2.0273  -1.9491
    -1.5403  -1.2703  -1.2398  -0.9241  -0.8679  -0.8482  -0.8202  -0.7322
    -0.7182  -0.6487  -0.5787  -0.4183  -0.2366  -0.2005  -0.1898  -0.1643
    -0.1631  -0.0978   0.5827   0.6806   0.9898   0.9956   1.0234   1.0340
     1.4176   1.4870   2.0819   2.1179   2.1971   2.2475   2.2497   2.2534
     2.3087   2.3672   2.5460   2.5501   2.7349   2.7356   2.7398   2.7412
     2.8109   2.8147   2.9359   3.1440   3.1459   3.4100   3.4113   3.4388
     3.4420   3.4770   3.4779   3.5732   3.5742   3.6093   3.6132   3.6507
     3.6523   3.6548   3.6568   3.7362   3.7649   3.9684   3.9691   4.2930
     4.2949   4.3968   4.4025   4.5566   4.5589   4.6060   4.6093   4.6558
     4.7995   4.8011   4.8020   4.8067   4.8074   4.8092   4.9783   4.9819
     5.1160   5.1406   5.2058   5.2090   5.3216   5.3506   5.4224   5.4237
     5.4253   5.4298   5.5736   5.6019   5.6071   5.9890   6.2401   6.7676
     7.4911   7.6771   7.7562   7.8945   7.9325   8.1330   8.1547   8.3242
     8.4849   8.4914   8.4972   8.5227   8.6935   8.7182   8.7472   8.9221
     9.0811   9.0947   9.1247   9.1548   9.1888   9.2240   9.2763   9.4030
     9.4250   9.5221

          k = 0.0000 0.2500-0.5000 ( 36408 PWs)   bands (ev):

    -5.8305  -5.8293  -5.2883  -5.2872  -4.7887  -4.7876  -4.7483  -4.7472
    -4.4827  -4.4811  -4.2756  -4.2747  -4.2405  -4.2394  -3.5196  -3.5177
    -3.5118  -3.5111  -3.2143  -3.2134  -3.1296  -3.1279  -2.9263  -2.9250
    -2.8490  -2.8477  -2.8241  -2.8230  -2.5062  -2.5046  -1.9821  -1.9812
    -1.4179  -1.4167  -0.8389  -0.8374  -0.6152  -0.6132  -0.5997  -0.5987
    -0.5826  -0.5817  -0.5497  -0.5488  -0.4988  -0.4974  -0.1263  -0.1248
     0.3360   0.3372   0.3546   0.3560   0.3750   0.3764   1.1330   1.1343
     1.6251   1.6263   1.6480   1.6490   2.0353   2.0359   2.4492   2.4503
     2.4631   2.4641   2.4863   2.4871   2.5712   2.5721   2.8847   2.8861
     2.9967   2.9969   3.3099   3.3104   3.3890   3.3893   3.5466   3.5477
     3.5498   3.5508   3.6502   3.6508   3.6873   3.6882   3.7956   3.7969
     3.8519   3.8527   4.0503   4.0511   4.0637   4.0642   4.1424   4.1435
     4.1920   4.1937   4.2011   4.2024   4.3636   4.3640   4.4178   4.4190
     4.4901   4.4904   4.4924   4.4927   4.6204   4.6221   4.9372   4.9383
     4.9480   4.9495   5.1426   5.1431   5.1440   5.1444   5.3844   5.3860
     5.3960   5.3982   5.6201   5.6205   6.0011   6.0029   6.3419   6.3438
     7.7113   7.7122   8.0638   8.0650   8.5196   8.5208   8.6204   8.6210
     8.7090   8.7094   8.9790   8.9795   9.0031   9.0036   9.0448   9.0451
     9.0656   9.0664   9.1066   9.1073   9.2623   9.2631   9.3003   9.3013
     9.3023   9.3034

          k = 0.0000-0.5000-0.5000 ( 36332 PWs)   bands (ev):

    -5.6262  -5.6257  -5.6256  -5.6241  -4.6604  -4.6596  -4.6595  -4.6567
    -4.5638  -4.5625  -4.5623  -4.5602  -3.5595  -3.5592  -3.5590  -3.5574
    -3.3685  -3.3666  -3.3665  -3.3653  -3.1594  -3.1575  -3.1573  -3.1565
    -2.9911  -2.9899  -2.9896  -2.9888  -2.2020  -2.2001  -2.1999  -2.1986
    -1.1720  -1.1706  -1.1704  -1.1691  -0.6942  -0.6912  -0.6909  -0.6907
    -0.6226  -0.6224  -0.6219  -0.6195   0.1584   0.1598   0.1599   0.1611
     0.2519   0.2531   0.2534   0.2542   0.9777   0.9794   0.9799   0.9803
     0.9883   0.9886   0.9891   0.9906   2.1264   2.1270   2.1272   2.1279
     2.9913   2.9917   2.9928   2.9932   2.9941   2.9947   2.9956   2.9961
     3.1059   3.1067   3.1069   3.1074   3.1117   3.1120   3.1125   3.1128
     3.7160   3.7175   3.7177   3.7186   3.7661   3.7663   3.7670   3.7671
     3.8041   3.8059   3.8061   3.8080   4.1121   4.1131   4.1134   4.1144
     4.4047   4.4058   4.4062   4.4067   4.4103   4.4108   4.4113   4.4122
     4.7277   4.7284   4.7287   4.7301   4.7336   4.7352   4.7353   4.7362
     5.0003   5.0006   5.0007   5.0011   5.0373   5.0386   5.0393   5.0402
     5.0427   5.0436   5.0443   5.0459   6.4974   6.4994   6.4998   6.5017
     7.9307   7.9321   7.9322   7.9333   8.7123   8.7131   8.7132   8.7139
     8.7763   8.7767   8.7769   8.7774   8.9448   8.9458   8.9461   8.9465
     8.9902   8.9909   8.9913   8.9921   9.4092   9.4096   9.4102   9.4104
     9.7342   9.7354

          k = 0.2500 0.2500 0.2500 ( 36381 PWs)   bands (ev):

    -5.9531  -5.4602  -5.4179  -5.4168  -4.9707  -4.9693  -4.8634  -4.4525
    -4.3187  -4.3179  -4.3135  -4.1519  -4.1489  -3.9379  -3.9366  -3.6814
    -3.6807  -3.5846  -3.3096  -3.1654  -3.1179  -3.0715  -3.0449  -3.0439
    -3.0185  -2.6638  -2.5552  -2.5542  -2.4549  -2.4541  -2.2122  -2.0094
    -1.2659  -1.1891  -0.8711  -0.8700  -0.8233  -0.8013  -0.8005  -0.7417
    -0.5883  -0.5231  -0.5206  -0.4719  -0.4653  -0.3657  -0.3319  -0.0149
     0.3182   0.3193   0.3217   0.4083   0.4088   0.6559   1.2385   1.3063
     1.3082   1.6634   1.6645   1.6780   2.3276   2.3661   2.3670   2.3749
     2.3759   2.4287   2.4308   2.4316   2.4329   3.0219   3.0370   3.0504
     3.1149   3.1388   3.1396   3.1478   3.1485   3.1705   3.1767   3.1776
     3.1845   3.5413   3.5470   3.5478   3.5503   3.5514   3.5588   3.8163
     3.8293   3.8475   3.8522   3.8532   3.8538   4.1797   4.2280   4.2299
     4.2308   4.2407   4.2906   4.3501   4.3560   4.3565   4.6235   4.6609
     4.6617   4.6678   4.6695   4.7036   4.7043   4.7057   4.7063   4.9655
     5.0011   5.0581   5.1233   5.3456   5.3461   5.3518   5.3901   5.3916
     5.3954   5.5856   5.5906   5.9432   5.9442   5.9453   6.4997   6.5150
     7.4704   7.6489   7.8064   8.0749   8.0943   8.0951   8.1477   8.5964
     8.5974   8.6021   8.6237   8.6261   8.6796   8.9013   8.9069   8.9411
     8.9497   8.9505   9.1269   9.1744   9.1753   9.1857   9.1867   9.2194
     9.2625   9.2714

          k = 0.2500 0.2500-0.5000 ( 36310 PWs)   bands (ev):

    -5.7594  -5.7583  -5.2389  -5.2381  -5.2380  -5.2358  -4.6992  -4.6983
    -4.2365  -4.2347  -4.1648  -4.1639  -4.1638  -4.1620  -3.4757  -3.4740
    -3.2973  -3.2961  -3.2006  -3.1997  -3.1053  -3.1036  -3.1035  -3.1024
    -3.0963  -3.0943  -2.7569  -2.7552  -2.7551  -2.7544  -2.1189  -2.1179
    -1.2212  -1.2211  -0.7227  -0.7224  -0.7221  -0.7198  -0.6375  -0.6361
    -0.4582  -0.4563  -0.3859  -0.3847  -0.2762  -0.2744  -0.2739  -0.2735
     0.0866   0.0880   0.2577   0.2589   0.8879   0.8888   0.8890   0.8910
     0.9632   0.9646   2.2949   2.2954   2.2957   2.2968   2.3714   2.3728
     2.3733   2.3741   2.5838   2.5849   2.6511   2.6518   2.7441   2.7449
     2.7455   2.7460   3.2520   3.2528   3.3394   3.3406   3.5465   3.5473
     3.5479   3.5484   3.6952   3.6969   3.7661   3.7667   3.7756   3.7765
     3.8263   3.8273   3.9806   3.9812   3.9815   3.9833   4.0265   4.0277
     4.0773   4.0788   4.2151   4.2156   4.2161   4.2170   4.4840   4.4842
     4.4847   4.4855   4.7709   4.7713   4.8384   4.8386   4.8391   4.8417
     4.8432   4.8445   4.8889   4.8917   5.0726   5.0733   5.8072   5.8091
     5.8811   5.8825   5.8829   5.8839   5.9520   5.9541   6.1875   6.1890
     7.7981   7.7992   8.0137   8.0151   8.3089   8.3101   8.6083   8.6093
     8.6096   8.6108   8.6399   8.6404   8.7258   8.7265   8.7268   8.7282
     8.8064   8.8079   8.9155   8.9166   8.9436   8.9438   9.2748   9.2752
     9.2760   9.2771

          k = 0.2500-0.5000-0.5000 ( 36276 PWs)   bands (ev):

    -5.5669  -5.5658  -5.5532  -5.5521  -5.0706  -5.0694  -5.0163  -5.0153
    -4.1933  -4.1917  -4.0015  -4.0007  -3.6270  -3.6256  -3.4775  -3.4767
    -3.3433  -3.3416  -3.3221  -3.3205  -3.2312  -3.2303  -3.1812  -3.1798
    -3.0870  -3.0857  -2.9361  -2.9353  -2.6893  -2.6885  -2.4012  -2.4002
    -0.9575  -0.9565  -0.7504  -0.7494  -0.6333  -0.6317  -0.5512  -0.5498
    -0.5209  -0.5197  -0.4886  -0.4872   0.0352   0.0367   0.0373   0.0386
     0.1111   0.1123   0.1716   0.1730   0.3768   0.3780   0.4089   0.4103
     1.6519   1.6534   1.6745   1.6759   2.3331   2.3339   2.3346   2.3354
     2.9451   2.9460   2.9521   2.9532   2.9544   2.9555   2.9569   2.9579
     2.9651   2.9664   2.9893   2.9900   2.9909   2.9917   2.9950   2.9957
     3.2447   3.2465   3.2807   3.2821   3.7612   3.7623   3.7688   3.7697
     4.0252   4.0268   4.0270   4.0272   4.0285   4.0287   4.0289   4.0304
     4.1737   4.1747   4.1771   4.1782   4.4300   4.4305   4.4333   4.4342
     4.4347   4.4355   4.4379   4.4388   4.6487   4.6498   4.6587   4.6601
     5.4830   5.4834   5.4844   5.4847   5.4945   5.4957   5.4982   5.4996
     5.6095   5.6111   5.6114   5.6129   6.3430   6.3448   6.3460   6.3478
     7.9718   7.9732   8.0265   8.0277   8.3284   8.3295   8.3663   8.3676
     8.3715   8.3719   8.4475   8.4482   8.5418   8.5431   8.6455   8.6465
     8.7374   8.7380   8.7668   8.7671   8.8505   8.8506   8.8597   8.8606
     8.9022   8.9039

          k =-0.5000-0.5000-0.5000 ( 36120 PWs)   bands (ev):

    -5.3797  -5.3790  -5.3788  -5.3767  -5.3496  -5.3486  -5.3485  -5.3465
    -3.8012  -3.8009  -3.8006  -3.7971  -3.3613  -3.3582  -3.3580  -3.3579
    -3.3578  -3.3578  -3.3577  -3.3545  -3.2670  -3.2645  -3.2644  -3.2635
    -3.2171  -3.2157  -3.2156  -3.2140  -2.7871  -2.7856  -2.7855  -2.7851
    -0.6024  -0.5988  -0.5985  -0.5975  -0.2587  -0.2566  -0.2561  -0.2558
    -0.2482  -0.2478  -0.2474  -0.2455  -0.1928  -0.1924  -0.1919  -0.1918
    -0.1916  -0.1915  -0.1911  -0.1869   0.0754   0.0775   0.0777   0.0782
     2.3979   2.3993   2.3999   2.4006   2.4393   2.4394   2.4401   2.4414
     2.8587   2.8598   2.8611   2.8619   2.9144   2.9155   2.9162   2.9169
     2.9170   2.9172   2.9177   2.9182   2.9207   2.9210   2.9225   2.9229
     2.9478   2.9481   2.9492   2.9496   2.9790   2.9796   2.9799   2.9807
     4.3200   4.3213   4.3214   4.3219   4.3505   4.3533   4.3539   4.3540
     4.3542   4.3542   4.3545   4.3546   4.3549   4.3550   4.3554   4.3555
     4.3555   4.3557   4.3569   4.3586   4.3909   4.3928   4.3937   4.3943
     5.9584   5.9606   5.9612   5.9614   5.9633   5.9652   5.9657   5.9663
     5.9665   5.9667   5.9671   5.9673   5.9685   5.9685   5.9692   5.9727
     8.1071   8.1097   8.1099   8.1101   8.2353   8.2358   8.2359   8.2382
     8.2700   8.2726   8.2728   8.2732   8.2747   8.2762   8.2764   8.2766
     8.2767   8.2767   8.2774   8.2796   8.4653   8.4662   8.4666   8.4680
     8.5495   8.5499

          k = 0.2500 0.0000 0.0000 ( 36317 PWs)   bands (ev):

    -6.0912  -5.5355  -5.3021  -5.0109  -4.9801  -4.8019  -4.6321  -4.5620
    -4.4626  -4.4507  -4.3916  -4.2958  -4.2852  -4.0608  -3.9431  -3.8646
    -3.6648  -3.6628  -3.5506  -3.5104  -3.2556  -3.2294  -3.1312  -2.9440
    -2.6669  -2.2936  -2.1624  -2.0543  -1.9364  -1.7934  -1.7167  -1.7080
    -1.6908  -1.5909  -1.5887  -1.5730  -1.1933  -1.0905  -0.9795  -0.8197
    -0.7105  -0.6865  -0.5750  -0.4855  -0.4651  -0.1192  -0.0118   0.1466
     0.1514   0.2124   0.3599   0.5329   0.6200   1.1182   1.3694   1.4327
     1.5638   1.6216   2.2521   2.2737   2.2751   2.2757   2.2990   2.3514
     2.3527   2.3543   2.3574   2.5593   2.5645   2.7269   2.7283   2.7292
     2.7297   2.7932   3.1016   3.1207   3.1712   3.1754   3.1772   3.1836
     3.1868   3.1954   3.1994   3.2015   3.2034   3.2374   3.4481   3.4492
     3.4500   3.4510   3.7130   3.7149   4.0166   4.2520   4.2529   4.3556
     4.4151   4.4158   4.4760   4.7536   4.7549   4.7583   4.7596   4.8448
     4.8860   4.8861   4.9326   4.9647   4.9654   4.9713   4.9883   5.2789
     5.2810   5.3194   5.3353   5.3488   5.3647   5.4081   5.4248   5.4274
     5.4330   5.4360   5.4514   5.4597   5.4652   6.2840   6.5318   6.5477
     7.2496   7.5075   7.6473   7.7885   7.8484   7.8820   7.9731   8.0507
     8.0809   8.2725   8.2848   8.2930   8.4094   8.4512   8.4784   8.8404
     8.9707   9.0407   9.0773   9.0897   9.1455   9.2357   9.2466   9.3192
     9.3573   9.4359

          k = 0.0000 0.2500 0.0000 ( 36317 PWs)   bands (ev):

    -6.0912  -5.5355  -5.3021  -5.0109  -4.9801  -4.8019  -4.6321  -4.5620
    -4.4626  -4.4507  -4.3916  -4.2957  -4.2852  -4.0608  -3.9431  -3.8646
    -3.6647  -3.6628  -3.5506  -3.5104  -3.2556  -3.2294  -3.1312  -2.9441
    -2.6669  -2.2936  -2.1624  -2.0543  -1.9364  -1.7934  -1.7167  -1.7079
    -1.6908  -1.5909  -1.5887  -1.5730  -1.1933  -1.0905  -0.9795  -0.8197
    -0.7105  -0.6865  -0.5750  -0.4855  -0.4651  -0.1192  -0.0118   0.1466
     0.1514   0.2124   0.3599   0.5328   0.6200   1.1182   1.3694   1.4327
     1.5638   1.6216   2.2521   2.2739   2.2751   2.2755   2.2990   2.3513
     2.3528   2.3543   2.3574   2.5593   2.5645   2.7268   2.7282   2.7294
     2.7298   2.7932   3.1015   3.1207   3.1712   3.1753   3.1773   3.1836
     3.1868   3.1954   3.1995   3.2015   3.2034   3.2374   3.4481   3.4490
     3.4502   3.4510   3.7131   3.7148   4.0166   4.2523   4.2527   4.3556
     4.4150   4.4159   4.4760   4.7536   4.7548   4.7584   4.7597   4.8448
     4.8858   4.8863   4.9326   4.9646   4.9654   4.9713   4.9884   5.2791
     5.2809   5.3195   5.3353   5.3488   5.3647   5.4081   5.4250   5.4272
     5.4330   5.4361   5.4513   5.4597   5.4652   6.2840   6.5318   6.5476
     7.2496   7.5075   7.6473   7.7885   7.8484   7.8820   7.9732   8.0507
     8.0809   8.2725   8.2848   8.2930   8.4094   8.4512   8.4784   8.8404
     8.9707   9.0407   9.0773   9.0897   9.1455   9.2356   9.2466   9.3192
     9.3573   9.4359

          k =-0.5000 0.0000 0.0000 ( 36434 PWs)   bands (ev):

    -5.8826  -5.8813  -5.1133  -5.1115  -4.8567  -4.8559  -4.7815  -4.7806
    -4.3724  -4.3711  -4.3476  -4.3460  -4.1410  -4.1398  -3.7350  -3.7328
    -3.6521  -3.6507  -3.3984  -3.3976  -3.2813  -3.2788  -2.9193  -2.9176
    -2.7531  -2.7519  -2.5698  -2.5688  -1.8053  -1.8043  -1.7433  -1.7416
    -1.6527  -1.6512  -1.6051  -1.6044  -0.6932  -0.6915  -0.5383  -0.5366
    -0.4198  -0.4185  -0.3630  -0.3617  -0.3483  -0.3466  -0.1756  -0.1747
    -0.0450  -0.0444   0.0175   0.0182   0.4743   0.4751   1.7442   1.7452
     2.0026   2.0034   2.0233   2.0243   2.1850   2.1855   2.2004   2.2012
     2.2015   2.2021   2.2097   2.2108   2.2176   2.2187   3.0547   3.0550
     3.0567   3.0569   3.0570   3.0573   3.0580   3.0584   3.7645   3.7651
     3.8023   3.8027   3.8123   3.8130   3.8633   3.8634   3.9161   3.9168
     3.9178   3.9185   3.9532   3.9538   3.9542   3.9549   3.9554   3.9559
     3.9615   3.9628   3.9929   3.9938   4.0443   4.0455   4.0534   4.0547
     4.1017   4.1021   5.1834   5.1836   5.2034   5.2038   5.2096   5.2099
     5.2106   5.2111   5.2406   5.2412   5.3669   5.3683   5.3827   5.3836
     5.3963   5.3974   5.4097   5.4113   5.9192   5.9199   5.9249   5.9255
     7.3074   7.3084   8.2800   8.2808   8.6959   8.6967   8.7210   8.7215
     8.7434   8.7437   8.8162   8.8166   8.8407   8.8416   8.8831   8.8843
     8.9666   8.9672   9.0593   9.0601   9.0689   9.0693   9.2733   9.2737
     9.3006   9.3012

          k = 0.0000-0.5000 0.0000 ( 36434 PWs)   bands (ev):

    -5.8821  -5.8817  -5.1130  -5.1118  -4.8571  -4.8554  -4.7819  -4.7802
    -4.3723  -4.3711  -4.3479  -4.3458  -4.1414  -4.1395  -3.7342  -3.7336
    -3.6521  -3.6508  -3.3984  -3.3976  -3.2807  -3.2794  -2.9191  -2.9178
    -2.7530  -2.7520  -2.5699  -2.5687  -1.8058  -1.8038  -1.7433  -1.7416
    -1.6526  -1.6513  -1.6053  -1.6042  -0.6927  -0.6920  -0.5383  -0.5366
    -0.4198  -0.4184  -0.3630  -0.3616  -0.3482  -0.3467  -0.1756  -0.1747
    -0.0450  -0.0445   0.0174   0.0183   0.4745   0.4749   1.7444   1.7451
     2.0026   2.0035   2.0233   2.0243   2.1850   2.1856   2.2006   2.2011
     2.2017   2.2020   2.2098   2.2106   2.2178   2.2184   3.0546   3.0550
     3.0563   3.0568   3.0571   3.0574   3.0582   3.0584   3.7646   3.7650
     3.8023   3.8028   3.8124   3.8130   3.8631   3.8636   3.9168   3.9168
     3.9177   3.9178   3.9533   3.9538   3.9546   3.9548   3.9551   3.9558
     3.9617   3.9624   3.9929   3.9939   4.0445   4.0453   4.0537   4.0545
     4.1017   4.1021   5.1830   5.1839   5.2034   5.2038   5.2096   5.2100
     5.2105   5.2112   5.2406   5.2413   5.3675   5.3678   5.3828   5.3836
     5.3964   5.3973   5.4098   5.4111   5.9198   5.9199   5.9249   5.9250
     7.3077   7.3080   8.2802   8.2806   8.6959   8.6968   8.7208   8.7216
     8.7432   8.7439   8.8161   8.8167   8.8407   8.8417   8.8830   8.8844
     8.9667   8.9671   9.0593   9.0602   9.0689   9.0693   9.2734   9.2737
     9.3006   9.3013

          k = 0.0000-0.2500 0.2500 ( 36395 PWs)   bands (ev):

    -6.0248  -5.5306  -5.4724  -5.0081  -4.9535  -4.9207  -4.5914  -4.5490
    -4.4876  -4.4137  -4.3963  -4.3500  -4.2040  -4.0789  -4.0144  -3.7417
    -3.5785  -3.5049  -3.3953  -3.3117  -3.2401  -3.2150  -2.9160  -2.9113
    -2.7185  -2.6887  -2.4909  -2.4097  -2.3887  -2.0702  -2.0279  -1.9484
    -1.5410  -1.2695  -1.2383  -0.9234  -0.8690  -0.8475  -0.8191  -0.7318
    -0.7170  -0.6493  -0.5784  -0.4197  -0.2373  -0.2013  -0.1906  -0.1652
    -0.1637  -0.0986   0.5842   0.6820   0.9904   0.9961   1.0240   1.0345
     1.4168   1.4862   2.0817   2.1163   2.1966   2.2481   2.2503   2.2533
     2.3080   2.3667   2.5458   2.5498   2.7357   2.7363   2.7406   2.7419
     2.8108   2.8146   2.9351   3.1447   3.1467   3.4091   3.4104   3.4392
     3.4424   3.4770   3.4779   3.5729   3.5739   3.6107   3.6145   3.6505
     3.6520   3.6544   3.6566   3.7365   3.7656   3.9685   3.9693   4.2937
     4.2957   4.3955   4.4013   4.5558   4.5580   4.6048   4.6081   4.6568
     4.8005   4.8008   4.8029   4.8061   4.8075   4.8087   4.9781   4.9817
     5.1160   5.1405   5.2057   5.2091   5.3228   5.3523   5.4221   5.4242
     5.4250   5.4297   5.5718   5.6004   5.6056   5.9906   6.2403   6.7697
     7.4919   7.6774   7.7566   7.8943   7.9323   8.1329   8.1546   8.3240
     8.4853   8.4920   8.4977   8.5238   8.6925   8.7185   8.7474   8.9214
     9.0809   9.0940   9.1250   9.1537   9.1889   9.2240   9.2764   9.4030
     9.4246   9.5222

          k = 0.2500 0.0000-0.2500 ( 36395 PWs)   bands (ev):

    -6.0248  -5.5305  -5.4723  -5.0082  -4.9535  -4.9207  -4.5913  -4.5489
    -4.4877  -4.4137  -4.3963  -4.3501  -4.2040  -4.0789  -4.0142  -3.7416
    -3.5785  -3.5049  -3.3951  -3.3121  -3.2403  -3.2147  -2.9163  -2.9112
    -2.7187  -2.6886  -2.4911  -2.4101  -2.3882  -2.0696  -2.0277  -1.9487
    -1.5407  -1.2699  -1.2391  -0.9244  -0.8684  -0.8473  -0.8202  -0.7320
    -0.7170  -0.6490  -0.5785  -0.4190  -0.2366  -0.2013  -0.1898  -0.1653
    -0.1629  -0.0986   0.5834   0.6813   0.9895   0.9962   1.0243   1.0340
     1.4172   1.4866   2.0818   2.1171   2.1971   2.2477   2.2499   2.2531
     2.3084   2.3670   2.5458   2.5500   2.7354   2.7360   2.7403   2.7413
     2.8109   2.8146   2.9355   3.1443   3.1463   3.4096   3.4108   3.4386
     3.4425   3.4770   3.4779   3.5730   3.5741   3.6099   3.6139   3.6506
     3.6518   3.6552   3.6564   3.7363   3.7653   3.9682   3.9694   4.2934
     4.2953   4.3962   4.4019   4.5558   4.5589   4.6055   4.6085   4.6563
     4.8001   4.8010   4.8021   4.8065   4.8080   4.8084   4.9782   4.9818
     5.1161   5.1406   5.2053   5.2091   5.3220   5.3519   5.4231   5.4234
     5.4252   5.4295   5.5728   5.6014   5.6062   5.9898   6.2402   6.7687
     7.4915   7.6772   7.7562   7.8944   7.9324   8.1329   8.1547   8.3238
     8.4853   8.4917   8.4974   8.5232   8.6930   8.7183   8.7473   8.9216
     9.0812   9.0945   9.1246   9.1543   9.1889   9.2245   9.2763   9.4030
     9.4247   9.5220

          k =-0.2500 0.0000-0.2500 ( 36395 PWs)   bands (ev):

    -6.0248  -5.5305  -5.4724  -5.0082  -4.9534  -4.9207  -4.5914  -4.5491
    -4.4875  -4.4136  -4.3963  -4.3500  -4.2040  -4.0792  -4.0142  -3.7416
    -3.5781  -3.5052  -3.3957  -3.3116  -3.2401  -3.2150  -2.9163  -2.9111
    -2.7186  -2.6886  -2.4904  -2.4101  -2.3889  -2.0696  -2.0276  -1.9488
    -1.5406  -1.2699  -1.2391  -0.9232  -0.8685  -0.8484  -0.8191  -0.7320
    -0.7182  -0.6490  -0.5785  -0.4190  -0.2373  -0.2004  -0.1907  -0.1643
    -0.1638  -0.0978   0.5834   0.6813   0.9908   0.9955   1.0231   1.0346
     1.4172   1.4865   2.0818   2.1171   2.1965   2.2479   2.2500   2.2537
     2.3083   2.3669   2.5460   2.5499   2.7350   2.7363   2.7399   2.7418
     2.8109   2.8146   2.9355   3.1444   3.1462   3.4102   3.4102   3.4393
     3.4419   3.4770   3.4779   3.5736   3.5736   3.6101   3.6138   3.6515
     3.6517   3.6543   3.6565   3.7364   3.7652   3.9687   3.9690   4.2934
     4.2952   4.3964   4.4017   4.5569   4.5578   4.6056   4.6084   4.6564
     4.8004   4.8012   4.8019   4.8061   4.8071   4.8094   4.9782   4.9818
     5.1159   5.1405   5.2061   5.2091   5.3224   5.3509   5.4217   5.4248
     5.4248   5.4299   5.5727   5.6013   5.6062   5.9898   6.2402   6.7687
     7.4915   7.6774   7.7565   7.8944   7.9324   8.1330   8.1545   8.3244
     8.4849   8.4918   8.4974   8.5232   8.6930   8.7183   8.7473   8.9219
     9.0809   9.0943   9.1251   9.1543   9.1888   9.2235   9.2764   9.4029
     9.5221   9.5998

          k = 0.2500-0.2500 0.0000 ( 36395 PWs)   bands (ev):

    -6.0240  -5.4615  -5.4604  -5.2480  -5.0006  -4.7211  -4.7196  -4.4905
    -4.4892  -4.4286  -4.4273  -4.0453  -4.0439  -3.9296  -3.9278  -3.8930
    -3.8914  -3.6244  -3.6228  -3.5258  -3.0364  -3.0353  -2.8987  -2.8210
    -2.8194  -2.6003  -2.5986  -2.3175  -2.3168  -2.1238  -2.1218  -1.8068
    -1.6593  -1.1890  -1.1878  -0.9549  -0.9528  -0.7673  -0.7666  -0.6897
    -0.6884  -0.6465  -0.6455  -0.4458  -0.3910  -0.3464  -0.3444  -0.1189
     0.0741   0.0749   0.6490   0.6502   0.7311   0.7322   1.2120   1.2124
     1.5015   1.5032   2.0301   2.0801   2.1291   2.2501   2.2509   2.3043
     2.3048   2.4167   2.5482   2.5491   2.6742   2.6746   2.8034   2.8038
     2.8073   2.8081   2.9338   3.1465   3.1470   3.4068   3.4081   3.4418
     3.4425   3.4780   3.4783   3.5730   3.5741   3.6058   3.6068   3.6216
     3.6224   3.6823   3.6833   3.7345   3.7651   3.9686   3.9693   4.2934
     4.2937   4.3999   4.4015   4.5580   4.5717   4.6057   4.6073   4.6532
     4.7564   4.7959   4.7967   4.8141   4.8149   4.8476   4.9761   4.9764
     5.0847   5.1795   5.1803   5.2364   5.2588   5.3981   5.3991   5.4142
     5.4523   5.4531   5.5719   5.6033   5.6052   5.9910   6.2335   6.7766
     7.5545   7.6402   7.6410   7.9443   7.9456   8.1237   8.2071   8.2084
     8.2616   8.5093   8.6615   8.7119   8.7130   8.7496   8.7907   8.9146
     8.9150   9.1000   9.1005   9.1822   9.1835   9.3186   9.3191   9.4297
     9.4314   9.5209

          k =-0.2500-0.2500 0.0000 ( 36395 PWs)   bands (ev):

    -6.0193  -5.4797  -5.4786  -5.2310  -4.9202  -4.7822  -4.7804  -4.5082
    -4.3724  -4.3714  -4.3439  -4.2676  -4.1102  -3.9770  -3.9760  -3.7937
    -3.7798  -3.7783  -3.3507  -3.2323  -3.2313  -3.1926  -3.0636  -3.0103
    -2.9839  -2.4891  -2.4882  -2.2478  -2.0137  -2.0121  -1.9579  -1.8962
    -1.5746  -1.2892  -1.2846  -1.2833  -1.1788  -0.9628  -0.8123  -0.8108
    -0.5403  -0.5086  -0.4158  -0.3352  -0.3223  -0.3205  -0.3159  -0.0498
     0.1044   0.1053   0.2129   0.8231   0.8239   0.9859   1.1038   1.1046
     1.4797   1.4813   1.9707   2.0741   2.1155   2.2482   2.2491   2.2504
     2.3679   2.4895   2.5478   2.5488   2.7166   2.7170   2.7542   2.7547
     2.7950   2.8271   2.9369   3.1440   3.1446   3.4068   3.4081   3.4284
     3.4530   3.4549   3.5026   3.5599   3.5884   3.6101   3.6111   3.6243
     3.6263   3.6869   3.6877   3.7311   3.7629   3.9688   3.9695   4.2924
     4.2928   4.3596   4.4321   4.5538   4.5657   4.5752   4.6381   4.6560
     4.7199   4.7967   4.7973   4.8140   4.8151   4.8821   4.9758   4.9762
     5.1290   5.1306   5.2127   5.2302   5.2869   5.3588   5.4054   5.4058
     5.4468   5.4487   5.5733   5.6020   5.6040   5.9906   6.2235   6.7797
     7.5544   7.6007   7.8570   7.9306   7.9318   7.9941   8.2896   8.3401
     8.4028   8.5524   8.5544   8.5678   8.5888   8.6449   8.7256   8.7268
     9.1169   9.1179   9.1456   9.1464   9.2996   9.3002   9.3291   9.3591
     9.3593   9.3807

          k = 0.2500 0.0000 0.5000 ( 36408 PWs)   bands (ev):

    -5.8305  -5.8293  -5.2883  -5.2872  -4.7887  -4.7875  -4.7483  -4.7473
    -4.4827  -4.4811  -4.2756  -4.2747  -4.2405  -4.2394  -3.5196  -3.5178
    -3.5118  -3.5111  -3.2143  -3.2134  -3.1295  -3.1280  -2.9264  -2.9249
    -2.8490  -2.8476  -2.8241  -2.8230  -2.5060  -2.5048  -1.9817  -1.9815
    -1.4176  -1.4169  -0.8382  -0.8381  -0.6151  -0.6132  -0.5997  -0.5988
    -0.5829  -0.5814  -0.5500  -0.5485  -0.4988  -0.4974  -0.1259  -0.1252
     0.3361   0.3371   0.3546   0.3560   0.3749   0.3764   1.1334   1.1339
     1.6248   1.6265   1.6477   1.6492   2.0354   2.0359   2.4495   2.4501
     2.4633   2.4638   2.4867   2.4867   2.5712   2.5721   2.8852   2.8855
     2.9967   2.9969   3.3101   3.3101   3.3890   3.3893   3.5472   3.5474
     3.5501   3.5503   3.6502   3.6508   3.6876   3.6880   3.7958   3.7966
     3.8520   3.8526   4.0501   4.0513   4.0635   4.0644   4.1426   4.1432
     4.1921   4.1937   4.2011   4.2023   4.3636   4.3639   4.4183   4.4185
     4.4897   4.4908   4.4920   4.4931   4.6212   4.6213   4.9372   4.9383
     4.9481   4.9495   5.1422   5.1435   5.1436   5.1449   5.3844   5.3861
     5.3960   5.3982   5.6201   5.6204   6.0018   6.0022   6.3427   6.3430
     7.7113   7.7122   8.0642   8.0646   8.5198   8.5205   8.6204   8.6210
     8.7090   8.7093   8.9787   8.9798   9.0032   9.0034   9.0446   9.0453
     9.0657   9.0663   9.1067   9.1071   9.2622   9.2630   9.3001   9.3009
     9.3025   9.3032

          k =-0.5000-0.2500 0.0000 ( 36408 PWs)   bands (ev):

    -5.8190  -5.8085  -5.2965  -5.2550  -5.0717  -5.0354  -4.6689  -4.5376
    -4.3413  -4.3324  -4.2934  -4.1841  -3.9968  -3.9432  -3.7921  -3.7693
    -3.6820  -3.6461  -3.4365  -3.3799  -3.2259  -3.1989  -2.9697  -2.9645
    -2.8281  -2.6727  -2.5880  -2.4707  -2.4598  -2.4064  -1.9951  -1.8979
    -1.4852  -1.3974  -0.9282  -0.8755  -0.8528  -0.7779  -0.7519  -0.7065
    -0.6457  -0.6124  -0.3672  -0.3448  -0.3303  -0.2661  -0.2496  -0.0699
     0.1111   0.2025   0.3990   0.4369   0.4728   0.5497   1.1232   1.1947
     1.3721   1.4614   1.7595   1.8624   2.0332   2.0337   2.3826   2.4425
     2.4551   2.4858   2.4887   2.5233   2.5826   2.5846   2.8748   2.8796
     2.9959   2.9964   3.3089   3.3102   3.3854   3.3900   3.4699   3.5425
     3.5554   3.6254   3.6533   3.6544   3.6861   3.6880   3.7938   3.7948
     3.8536   3.8550   4.0631   4.0663   4.0676   4.0698   4.1377   4.1413
     4.1582   4.1784   4.2017   4.2121   4.3615   4.3624   4.4182   4.4193
     4.4448   4.4879   4.4956   4.5341   4.6158   4.6162   4.9205   4.9382
     4.9576   4.9748   5.1119   5.1223   5.1742   5.1831   5.3633   5.3686
     5.4098   5.4137   5.6126   5.6156   6.0036   6.0049   6.3420   6.3446
     7.7202   7.7326   8.0616   8.0987   8.4912   8.5422   8.5844   8.6022
     8.7214   8.7623   8.8585   8.8704   8.9407   8.9572   8.9711   8.9801
     9.0413   9.0897   9.1194   9.1825   9.2026   9.2050   9.2123   9.2316
     9.3304   9.3697

          k = 0.0000-0.5000 0.2500 ( 36408 PWs)   bands (ev):

    -5.8169  -5.8165  -5.3333  -5.3326  -4.8055  -4.8038  -4.7257  -4.7241
    -4.4626  -4.4607  -4.3207  -4.3189  -4.0275  -4.0269  -3.6883  -3.6876
    -3.4473  -3.4460  -3.3840  -3.3830  -3.2512  -3.2504  -2.9752  -2.9739
    -2.8094  -2.8084  -2.5756  -2.5751  -2.4430  -2.4417  -1.9626  -1.9610
    -1.4381  -1.4367  -0.8781  -0.8767  -0.7719  -0.7710  -0.6194  -0.6176
    -0.5723  -0.5709  -0.5408  -0.5396  -0.5159  -0.5144   0.0008   0.0021
     0.3506   0.3514   0.3758   0.3766   0.4193   0.4200   1.0596   1.0609
     1.6407   1.6416   1.6418   1.6427   2.0337   2.0341   2.4497   2.4510
     2.4614   2.4626   2.4871   2.4878   2.5849   2.5849   2.8782   2.8798
     2.9945   2.9946   3.3091   3.3097   3.3921   3.3922   3.5454   3.5467
     3.5498   3.5511   3.6495   3.6496   3.6900   3.6907   3.7929   3.7939
     3.8559   3.8563   4.0540   4.0549   4.0651   4.0657   4.1408   4.1417
     4.1866   4.1871   4.1958   4.1967   4.3622   4.3625   4.4240   4.4251
     4.4877   4.4885   4.4887   4.4894   4.6166   4.6182   4.9506   4.9516
     4.9560   4.9571   5.1443   5.1453   5.1460   5.1470   5.3825   5.3829
     5.3846   5.3851   5.6194   5.6197   6.0045   6.0062   6.3375   6.3393
     7.6999   7.7007   8.1004   8.1015   8.5624   8.5636   8.6651   8.6655
     8.6733   8.6735   8.8346   8.8352   8.8954   8.8957   9.0095   9.0101
     9.0371   9.0379   9.1038   9.1046   9.1082   9.1089   9.2410   9.2419
     9.2768   9.2773

          k = 0.2500-0.5000 0.0000 ( 36408 PWs)   bands (ev):

    -5.8190  -5.8086  -5.2965  -5.2550  -5.0717  -5.0354  -4.6689  -4.5376
    -4.3413  -4.3324  -4.2934  -4.1841  -3.9967  -3.9432  -3.7921  -3.7693
    -3.6820  -3.6461  -3.4365  -3.3799  -3.2258  -3.1990  -2.9697  -2.9645
    -2.8281  -2.6727  -2.5880  -2.4707  -2.4598  -2.4064  -1.9951  -1.8979
    -1.4852  -1.3974  -0.9282  -0.8755  -0.8528  -0.7779  -0.7519  -0.7065
    -0.6457  -0.6124  -0.3672  -0.3448  -0.3303  -0.2661  -0.2496  -0.0700
     0.1111   0.2025   0.3989   0.4369   0.4728   0.5497   1.1232   1.1947
     1.3721   1.4614   1.7595   1.8624   2.0335   2.0335   2.3826   2.4425
     2.4552   2.4858   2.4887   2.5233   2.5827   2.5846   2.8748   2.8796
     2.9959   2.9964   3.3089   3.3102   3.3854   3.3900   3.4699   3.5425
     3.5554   3.6254   3.6534   3.6543   3.6861   3.6880   3.7939   3.7947
     3.8537   3.8549   4.0631   4.0662   4.0678   4.0698   4.1377   4.1413
     4.1583   4.1784   4.2017   4.2121   4.3615   4.3623   4.4183   4.4193
     4.4448   4.4878   4.4957   4.5341   4.6158   4.6163   4.9205   4.9382
     4.9576   4.9748   5.1119   5.1223   5.1742   5.1831   5.3634   5.3685
     5.4098   5.4137   5.6126   5.6156   6.0037   6.0049   6.3420   6.3446
     7.7203   7.7326   8.0616   8.0987   8.4912   8.5422   8.5844   8.6022
     8.7214   8.7622   8.8585   8.8704   8.9407   8.9572   8.9711   8.9801
     9.0414   9.0945   9.1194   9.1826   9.2027   9.2050   9.2122   9.2315
     9.3309   9.3698

          k =-0.5000 0.0000 0.2500 ( 36408 PWs)   bands (ev):

    -5.8173  -5.8161  -5.3337  -5.3322  -4.8050  -4.8042  -4.7253  -4.7244
    -4.4623  -4.4610  -4.3203  -4.3193  -4.0277  -4.0267  -3.6890  -3.6868
    -3.4473  -3.4460  -3.3847  -3.3823  -3.2512  -3.2505  -2.9754  -2.9737
    -2.8095  -2.8084  -2.5757  -2.5749  -2.4428  -2.4419  -1.9621  -1.9615
    -1.4375  -1.4373  -0.8779  -0.8769  -0.7717  -0.7712  -0.6194  -0.6176
    -0.5724  -0.5708  -0.5409  -0.5396  -0.5159  -0.5144   0.0011   0.0018
     0.3505   0.3515   0.3757   0.3768   0.4193   0.4201   1.0601   1.0604
     1.6406   1.6416   1.6418   1.6428   2.0336   2.0341   2.4499   2.4508
     2.4616   2.4624   2.4875   2.4875   2.5845   2.5853   2.8789   2.8792
     2.9945   2.9947   3.3094   3.3094   3.3920   3.3924   3.5458   3.5465
     3.5499   3.5507   3.6492   3.6499   3.6901   3.6906   3.7931   3.7938
     3.8558   3.8564   4.0543   4.0546   4.0651   4.0657   4.1410   4.1416
     4.1863   4.1874   4.1955   4.1970   4.3621   4.3626   4.4243   4.4247
     4.4879   4.4884   4.4888   4.4891   4.6174   4.6175   4.9504   4.9516
     4.9560   4.9573   5.1443   5.1454   5.1458   5.1469   5.3819   5.3832
     5.3844   5.3857   5.6194   5.6197   6.0051   6.0056   6.3382   6.3386
     7.6998   7.7008   8.1007   8.1012   8.5628   8.5632   8.6652   8.6655
     8.6729   8.6738   8.8347   8.8351   8.8954   8.8957   9.0097   9.0099
     9.0370   9.0380   9.1041   9.1045   9.1081   9.1089   9.2411   9.2418
     9.2766   9.2774

          k =-0.5000 0.0000 0.5000 ( 36332 PWs)   bands (ev):

    -5.6266  -5.6257  -5.6256  -5.6236  -4.6598  -4.6597  -4.6594  -4.6574
    -4.5632  -4.5624  -4.5622  -4.5609  -3.5607  -3.5592  -3.5591  -3.5562
    -3.3686  -3.3666  -3.3665  -3.3653  -3.1597  -3.1574  -3.1574  -3.1562
    -2.9911  -2.9898  -2.9897  -2.9886  -2.2013  -2.2000  -2.1999  -2.1994
    -1.1719  -1.1706  -1.1704  -1.1691  -0.6941  -0.6912  -0.6910  -0.6907
    -0.6226  -0.6222  -0.6219  -0.6196   0.1584   0.1599   0.1599   0.1610
     0.2519   0.2532   0.2533   0.2541   0.9776   0.9793   0.9800   0.9803
     0.9883   0.9885   0.9890   0.9908   2.1266   2.1271   2.1271   2.1277
     2.9917   2.9920   2.9924   2.9932   2.9942   2.9950   2.9953   2.9956
     3.1061   3.1064   3.1071   3.1073   3.1117   3.1119   3.1125   3.1128
     3.7167   3.7174   3.7177   3.7180   3.7662   3.7663   3.7670   3.7671
     3.8052   3.8056   3.8064   3.8069   4.1124   4.1132   4.1133   4.1141
     4.4048   4.4055   4.4063   4.4065   4.4105   4.4107   4.4114   4.4121
     4.7276   4.7282   4.7288   4.7299   4.7337   4.7351   4.7355   4.7363
     5.0003   5.0006   5.0007   5.0010   5.0388   5.0389   5.0391   5.0398
     5.0431   5.0439   5.0441   5.0446   6.4990   6.4995   6.4996   6.5001
     7.9313   7.9322   7.9322   7.9326   8.7124   8.7130   8.7133   8.7137
     8.7761   8.7764   8.7771   8.7777   8.9450   8.9458   8.9460   8.9465
     8.9907   8.9909   8.9914   8.9915   9.4090   9.4096   9.4101   9.4106
     9.7348   9.7353

          k =-0.5000 0.5000 0.0000 ( 36332 PWs)   bands (ev):

    -5.6225  -5.6213  -5.5995  -5.5984  -4.9202  -4.9183  -4.8422  -4.8407
    -4.1840  -4.1825  -4.0980  -4.0970  -3.9066  -3.9048  -3.6785  -3.6765
    -3.4770  -3.4755  -3.4755  -3.4738  -3.2203  -3.2187  -3.2186  -3.2171
    -2.9308  -2.9302  -2.6042  -2.6035  -2.2742  -2.2722  -2.1653  -2.1638
    -1.1990  -1.1975  -1.1094  -1.1081  -0.9379  -0.9355  -0.5833  -0.5831
    -0.5829  -0.5807  -0.3902  -0.3893  -0.2582  -0.2559   0.2151   0.2158
     0.2161   0.2181   0.5662   0.5676   0.7269   0.7280   0.8402   0.8412
     1.0659   1.0666   1.1920   1.1924   2.1257   2.1265   2.1275   2.1283
     2.8970   2.8975   2.9894   2.9900   2.9908   2.9914   3.0863   3.0868
     3.0920   3.0927   3.1099   3.1102   3.1105   3.1115   3.1325   3.1339
     3.7501   3.7506   3.7509   3.7518   3.7629   3.7631   3.7655   3.7659
     3.7669   3.7674   3.7717   3.7720   4.1112   4.1120   4.1124   4.1132
     4.3985   4.3994   4.4140   4.4144   4.4148   4.4156   4.4295   4.4302
     4.6547   4.6560   4.6922   4.6927   4.7661   4.7672   4.8067   4.8078
     4.9752   4.9764   4.9768   4.9773   4.9934   4.9938   4.9969   4.9974
     5.1025   5.1038   5.1045   5.1069   6.4993   6.5015   6.5017   6.5039
     7.9356   7.9368   7.9697   7.9711   8.6737   8.6755   8.7092   8.7097
     8.7100   8.7109   8.8403   8.8405   8.8607   8.8613   8.8666   8.8675
     9.0248   9.0266   9.1234   9.1250   9.3619   9.3622   9.5579   9.5586
     9.5595   9.5597

          k =-0.2500-0.2500 0.2500 ( 36381 PWs)   bands (ev):

    -5.9531  -5.4602  -5.4179  -5.4168  -4.9707  -4.9692  -4.8635  -4.4523
    -4.3187  -4.3178  -4.3135  -4.1519  -4.1489  -3.9380  -3.9370  -3.6815
    -3.6808  -3.5851  -3.3096  -3.1655  -3.1176  -3.0715  -3.0444  -3.0435
    -3.0184  -2.6641  -2.5556  -2.5546  -2.4549  -2.4538  -2.2123  -2.0093
    -1.2660  -1.1890  -0.8714  -0.8702  -0.8233  -0.8014  -0.7991  -0.7412
    -0.5872  -0.5231  -0.5227  -0.4728  -0.4654  -0.3656  -0.3318  -0.0150
     0.3185   0.3196   0.3208   0.4084   0.4105   0.6558   1.2377   1.3062
     1.3073   1.6632   1.6641   1.6786   2.3281   2.3658   2.3667   2.3750
     2.3757   2.4288   2.4312   2.4318   2.4332   3.0211   3.0368   3.0501
     3.1155   3.1389   3.1396   3.1482   3.1490   3.1708   3.1769   3.1781
     3.1854   3.5408   3.5468   3.5475   3.5505   3.5520   3.5587   3.8164
     3.8293   3.8481   3.8523   3.8533   3.8547   4.1787   4.2274   4.2297
     4.2305   4.2399   4.2902   4.3500   4.3561   4.3571   4.6233   4.6605
     4.6610   4.6675   4.6681   4.7030   4.7041   4.7057   4.7072   4.9646
     5.0013   5.0584   5.1245   5.3459   5.3470   5.3519   5.3899   5.3904
     5.3936   5.5864   5.5903   5.9437   5.9451   5.9459   6.5009   6.5149
     7.4709   7.6490   7.8069   8.0748   8.0941   8.0958   8.1481   8.5968
     8.5981   8.6018   8.6237   8.6257   8.6792   8.9009   8.9067   8.9410
     8.9496   8.9506   9.1263   9.1741   9.1748   9.1857   9.1869   9.2201
     9.2635   9.2713

          k =-0.2500 0.2500-0.2500 ( 36381 PWs)   bands (ev):

    -5.9582  -5.4701  -5.3986  -5.3975  -4.9487  -4.9335  -4.9323  -4.6041
    -4.3783  -4.3769  -4.1405  -4.0432  -4.0416  -3.8589  -3.8574  -3.7279
    -3.7267  -3.6701  -3.6686  -3.3806  -2.9515  -2.8852  -2.8846  -2.7924
    -2.7908  -2.6510  -2.6370  -2.6354  -2.5139  -2.5127  -2.3925  -2.3916
    -0.9268  -0.9257  -0.8306  -0.8296  -0.7487  -0.7409  -0.7401  -0.6566
    -0.6557  -0.6138  -0.5741  -0.5708  -0.5673  -0.5360  -0.5347   0.2945
     0.3034   0.3045   0.3726   0.3738   0.3949   0.3954   1.2470   1.3192
     1.3212   1.6736   1.7000   1.7010   2.3744   2.3749   2.3763   2.3771
     2.3793   2.3802   2.4316   2.4323   2.4466   3.0322   3.0347   3.0353
     3.1385   3.1393   3.1402   3.1408   3.1466   3.1472   3.1536   3.1695
     3.1704   3.5477   3.5488   3.5500   3.5510   3.5514   3.5517   3.8309
     3.8312   3.8319   3.8509   3.8518   3.8705   4.2248   4.2259   4.2297
     4.2358   4.2381   4.2392   4.3554   4.3575   4.3581   4.6576   4.6591
     4.6620   4.6636   4.6672   4.6684   4.7011   4.7080   4.7087   4.9647
     5.0491   5.0612   5.0616   5.3445   5.3450   5.3483   5.3916   5.3940
     5.3974   5.5894   5.6033   5.9445   5.9449   5.9472   6.5098   6.5125
     7.6070   7.6152   7.6162   8.0448   8.0683   8.0924   8.0932   8.5757
     8.5765   8.5770   8.7785   8.8138   8.8151   8.8849   8.8854   8.8935
     8.9352   8.9358   9.0185   9.1215   9.2311   9.2329   9.2570   9.2613
     9.3324   9.3327

          k = 0.2500-0.2500-0.2500 ( 36381 PWs)   bands (ev):

    -5.9582  -5.4700  -5.3986  -5.3975  -4.9487  -4.9336  -4.9323  -4.6043
    -4.3783  -4.3770  -4.1406  -4.0431  -4.0414  -3.8589  -3.8574  -3.7278
    -3.7266  -3.6701  -3.6686  -3.3802  -2.9519  -2.8860  -2.8847  -2.7924
    -2.7908  -2.6508  -2.6370  -2.6354  -2.5142  -2.5127  -2.3919  -2.3912
    -0.9284  -0.9257  -0.8304  -0.8293  -0.7493  -0.7408  -0.7400  -0.6567
    -0.6558  -0.6149  -0.5714  -0.5708  -0.5669  -0.5360  -0.5348   0.2955
     0.3030   0.3043   0.3727   0.3739   0.3934   0.3953   1.2479   1.3202
     1.3212   1.6730   1.7003   1.7012   2.3740   2.3746   2.3766   2.3773
     2.3794   2.3802   2.4315   2.4322   2.4460   3.0325   3.0353   3.0358
     3.1380   3.1389   3.1397   3.1402   3.1465   3.1473   3.1526   3.1691
     3.1702   3.5471   3.5486   3.5503   3.5508   3.5515   3.5525   3.8303
     3.8310   3.8318   3.8509   3.8518   3.8696   4.2253   4.2263   4.2304
     4.2366   4.2388   4.2397   4.3554   4.3569   4.3580   4.6589   4.6595
     4.6624   4.6638   4.6682   4.6688   4.7012   4.7073   4.7086   4.9656
     5.0488   5.0602   5.0611   5.3436   5.3447   5.3481   5.3937   5.3942
     5.3984   5.5886   5.6037   5.9431   5.9446   5.9469   6.5087   6.5126
     7.6069   7.6145   7.6157   8.0450   8.0679   8.0915   8.0934   8.5751
     8.5759   8.5770   8.7784   8.8143   8.8155   8.8843   8.8854   8.8936
     8.9350   8.9358   9.0185   9.1209   9.2301   9.2339   9.2572   9.2614
     9.3321   9.3328

          k =-0.2500 0.2500 0.5000 ( 36310 PWs)   bands (ev):

    -5.7657  -5.7646  -5.2151  -5.2142  -5.2140  -5.2121  -4.8030  -4.8016
    -4.2369  -4.2363  -4.2360  -4.2335  -3.7711  -3.7695  -3.7694  -3.7680
    -3.4665  -3.4649  -3.1464  -3.1439  -3.1438  -3.1429  -3.1255  -3.1244
    -2.7194  -2.7181  -2.7180  -2.7161  -2.6079  -2.6065  -2.6064  -2.6055
    -0.8119  -0.8090  -0.8087  -0.8082  -0.7015  -0.6998  -0.6909  -0.6905
    -0.6903  -0.6892  -0.2659  -0.2654  -0.2649  -0.2631  -0.1316  -0.1311
    -0.1309  -0.1288   0.2579   0.2591   0.8868   0.8892   0.8893   0.8900
     0.9524   0.9539   2.3000   2.3011   2.3015   2.3019   2.4244   2.4246
     2.4253   2.4266   2.6149   2.6154   2.6160   2.6164   2.7030   2.7034
     2.7044   2.7049   3.2537   3.2545   3.3260   3.3271   3.5519   3.5524
     3.5531   3.5536   3.7606   3.7613   3.7620   3.7627   3.7706   3.7710
     3.7713   3.7722   3.9758   3.9778   3.9781   3.9787   4.0296   4.0309
     4.0834   4.0849   4.2136   4.2144   4.2150   4.2154   4.4852   4.4861
     4.4865   4.4867   4.8270   4.8296   4.8300   4.8302   4.8377   4.8390
     4.8397   4.8400   4.8405   4.8410   5.0727   5.0735   5.8125   5.8145
     5.8822   5.8832   5.8837   5.8849   5.9499   5.9521   6.1920   6.1935
     7.7755   7.7767   8.1502   8.1510   8.1515   8.1525   8.4936   8.4959
     8.4961   8.4964   8.6129   8.6138   8.7599   8.7607   8.8649   8.8659
     8.8662   8.8675   9.1241   9.1249   9.1252   9.1262   9.1456   9.1469
     9.2467   9.2476

          k =-0.5000-0.2500 0.2500 ( 36310 PWs)   bands (ev):

    -5.7546  -5.7435  -5.2812  -5.2598  -5.2381  -5.1940  -4.8274  -4.7445
    -4.3009  -4.1363  -4.0615  -3.9883  -3.9632  -3.8110  -3.7306  -3.6584
    -3.6017  -3.5511  -3.4995  -3.3063  -3.2985  -3.2216  -2.9563  -2.9452
    -2.7619  -2.7589  -2.6719  -2.6501  -2.5916  -2.5608  -2.4383  -2.3999
    -0.9421  -0.9131  -0.7974  -0.7881  -0.7782  -0.7664  -0.7236  -0.7187
    -0.7162  -0.6374  -0.3826  -0.2161  -0.1945  -0.1871  -0.1685  -0.1101
    -0.1076  -0.0852   0.3234   0.3934   0.8102   0.8256   0.8791   0.9325
     0.9461   0.9817   2.2422   2.2908   2.2950   2.2957   2.4042   2.4242
     2.4395   2.4765   2.6116   2.6156   2.6172   2.6179   2.7011   2.7023
     2.7066   2.7145   3.2390   3.2507   3.3372   3.3391   3.5473   3.5516
     3.5527   3.5642   3.7605   3.7626   3.7637   3.7693   3.7708   3.7712
     3.7717   3.7727   3.9792   3.9812   3.9816   3.9828   4.0303   4.0328
     4.0739   4.0762   4.2118   4.2132   4.2140   4.2144   4.4758   4.4820
     4.4842   4.4869   4.8012   4.8143   4.8190   4.8266   4.8336   4.8352
     4.8430   4.8453   4.8476   4.8744   5.0845   5.0941   5.8069   5.8090
     5.8857   5.8863   5.8870   5.8885   5.9472   5.9511   6.1868   6.1886
     7.7542   7.7969   8.1298   8.1351   8.1707   8.2215   8.5674   8.6141
     8.6248   8.6258   8.6391   8.6418   8.6602   8.6752   8.6821   8.6922
     8.6977   8.7774   9.0924   9.1291   9.1565   9.1899   9.2233   9.2604
     9.3412   9.3442

          k = 0.5000-0.2500-0.2500 ( 36310 PWs)   bands (ev):

    -5.7546  -5.7435  -5.2811  -5.2597  -5.2380  -5.1940  -4.8276  -4.7446
    -4.3010  -4.1364  -4.0613  -3.9885  -3.9633  -3.8106  -3.7306  -3.6580
    -3.6017  -3.5507  -3.4994  -3.3061  -3.2991  -3.2214  -2.9561  -2.9456
    -2.7623  -2.7593  -2.6716  -2.6506  -2.5914  -2.5606  -2.4386  -2.3997
    -0.9426  -0.9123  -0.7980  -0.7870  -0.7787  -0.7655  -0.7241  -0.7183
    -0.7147  -0.6362  -0.3831  -0.2167  -0.1957  -0.1883  -0.1690  -0.1105
    -0.1087  -0.0860   0.3235   0.3935   0.8109   0.8264   0.8798   0.9332
     0.9471   0.9826   2.2416   2.2903   2.2947   2.2953   2.4034   2.4234
     2.4388   2.4759   2.6121   2.6160   2.6176   2.6184   2.7008   2.7019
     2.7063   2.7143   3.2395   3.2512   3.3381   3.3399   3.5461   3.5509
     3.5512   3.5630   3.7605   3.7627   3.7638   3.7691   3.7709   3.7713
     3.7717   3.7722   3.9806   3.9808   3.9817   3.9839   4.0296   4.0320
     4.0744   4.0769   4.2117   4.2130   4.2137   4.2145   4.4763   4.4823
     4.4847   4.4875   4.8016   4.8149   4.8196   4.8272   4.8346   4.8358
     4.8439   4.8460   4.8471   4.8737   5.0852   5.0950   5.8053   5.8075
     5.8852   5.8861   5.8873   5.8878   5.9459   5.9497   6.1878   6.1895
     7.7534   7.7960   8.1297   8.1350   8.1708   8.2214   8.5670   8.6142
     8.6242   8.6260   8.6392   8.6419   8.6603   8.6745   8.6819   8.6920
     8.6975   8.7763   9.0922   9.1289   9.1563   9.1898   9.2231   9.2594
     9.3422   9.3451

          k =-0.2500-0.5000 0.2500 ( 36310 PWs)   bands (ev):

    -5.7546  -5.7435  -5.2811  -5.2598  -5.2380  -5.1940  -4.8275  -4.7445
    -4.3009  -4.1363  -4.0614  -3.9883  -3.9634  -3.8109  -3.7306  -3.6583
    -3.6016  -3.5507  -3.4994  -3.3063  -3.2986  -3.2216  -2.9561  -2.9456
    -2.7621  -2.7586  -2.6719  -2.6505  -2.5917  -2.5605  -2.4387  -2.3996
    -0.9426  -0.9122  -0.7981  -0.7870  -0.7781  -0.7655  -0.7236  -0.7188
    -0.7161  -0.6374  -0.3832  -0.2161  -0.1945  -0.1883  -0.1681  -0.1107
    -0.1078  -0.0859   0.3231   0.3937   0.8100   0.8266   0.8793   0.9330
     0.9470   0.9818   2.2416   2.2907   2.2950   2.2955   2.4032   2.4241
     2.4398   2.4759   2.6120   2.6163   2.6169   2.6181   2.7011   2.7014
     2.7070   2.7144   3.2389   3.2513   3.3381   3.3390   3.5465   3.5512
     3.5523   3.5634   3.7607   3.7630   3.7634   3.7691   3.7707   3.7713
     3.7716   3.7725   3.9801   3.9810   3.9815   3.9834   4.0301   4.0322
     4.0738   4.0769   4.2117   4.2131   4.2138   4.2146   4.4764   4.4818
     4.4848   4.4869   4.8016   4.8144   4.8197   4.8265   4.8346   4.8352
     4.8434   4.8455   4.8472   4.8744   5.0852   5.0941   5.8065   5.8079
     5.8849   5.8856   5.8874   5.8891   5.9468   5.9502   6.1868   6.1896
     7.7539   7.7963   8.1297   8.1345   8.1708   8.2219   8.5670   8.6142
     8.6244   8.6256   8.6393   8.6424   8.6602   8.6748   8.6819   8.6917
     8.6981   8.7768   9.0924   9.1286   9.1562   9.1900   9.2229   9.2606
     9.3416   9.3447

          k =-0.2500 0.5000-0.2500 ( 36310 PWs)   bands (ev):

    -5.7546  -5.7435  -5.2812  -5.2597  -5.2381  -5.1940  -4.8274  -4.7446
    -4.3009  -4.1364  -4.0614  -3.9885  -3.9632  -3.8107  -3.7305  -3.6580
    -3.6018  -3.5511  -3.4996  -3.3059  -3.2991  -3.2214  -2.9563  -2.9452
    -2.7623  -2.7594  -2.6716  -2.6501  -2.5913  -2.5609  -2.4382  -2.4000
    -0.9421  -0.9132  -0.7973  -0.7881  -0.7789  -0.7664  -0.7241  -0.7181
    -0.7149  -0.6362  -0.3825  -0.2167  -0.1955  -0.1872  -0.1693  -0.1098
    -0.1086  -0.0853   0.3237   0.3932   0.8111   0.8253   0.8796   0.9327
     0.9462   0.9825   2.2423   2.2904   2.2944   2.2958   2.4044   2.4236
     2.4386   2.4764   2.6117   2.6155   2.6177   2.6182   2.7013   2.7024
     2.7060   2.7143   3.2397   3.2506   3.3376   3.3395   3.5469   3.5512
     3.5516   3.5637   3.7604   3.7620   3.7643   3.7694   3.7710   3.7713
     3.7716   3.7725   3.9801   3.9812   3.9820   3.9826   4.0302   4.0322
     4.0748   4.0759   4.2120   4.2131   4.2135   4.2146   4.4757   4.4825
     4.4841   4.4875   4.8013   4.8149   4.8189   4.8271   4.8348   4.8350
     4.8437   4.8454   4.8474   4.8737   5.0845   5.0951   5.8068   5.8076
     5.8859   5.8860   5.8873   5.8877   5.9469   5.9500   6.1880   6.1883
     7.7537   7.7965   8.1299   8.1355   8.1706   8.2209   8.5674   8.6142
     8.6244   8.6263   8.6391   8.6413   8.6602   8.6749   8.6821   8.6925
     8.6971   8.7768   9.0922   9.1294   9.1566   9.1897   9.2236   9.2596
     9.3419   9.3446

          k =-0.5000 0.2500 0.5000 ( 36276 PWs)   bands (ev):

    -5.5669  -5.5659  -5.5532  -5.5520  -5.0706  -5.0694  -5.0163  -5.0153
    -4.1933  -4.1917  -4.0015  -4.0007  -3.6270  -3.6256  -3.4775  -3.4767
    -3.3433  -3.3416  -3.3221  -3.3205  -3.2312  -3.2303  -3.1812  -3.1797
    -3.0871  -3.0857  -2.9362  -2.9353  -2.6893  -2.6885  -2.4011  -2.4003
    -0.9575  -0.9565  -0.7503  -0.7494  -0.6333  -0.6317  -0.5513  -0.5498
    -0.5210  -0.5196  -0.4885  -0.4873   0.0352   0.0365   0.0375   0.0386
     0.1113   0.1120   0.1718   0.1729   0.3767   0.3781   0.4088   0.4104
     1.6518   1.6535   1.6745   1.6759   2.3332   2.3339   2.3345   2.3354
     2.9450   2.9461   2.9522   2.9531   2.9548   2.9551   2.9572   2.9576
     2.9654   2.9661   2.9892   2.9900   2.9908   2.9919   2.9950   2.9958
     3.2448   3.2463   3.2808   3.2821   3.7611   3.7624   3.7687   3.7699
     4.0252   4.0266   4.0269   4.0272   4.0285   4.0287   4.0292   4.0304
     4.1740   4.1745   4.1773   4.1779   4.4298   4.4306   4.4332   4.4343
     4.4345   4.4356   4.4378   4.4390   4.6490   4.6496   4.6589   4.6599
     5.4823   5.4839   5.4840   5.4852   5.4951   5.4955   5.4985   5.4991
     5.6093   5.6107   5.6118   5.6131   6.3441   6.3446   6.3462   6.3467
     7.9720   7.9730   8.0269   8.0272   8.3284   8.3295   8.3664   8.3676
     8.3711   8.3722   8.4473   8.4484   8.5419   8.5430   8.6459   8.6460
     8.7372   8.7383   8.7666   8.7673   8.8500   8.8511   8.8597   8.8606
     8.9022   8.9039

          k =-0.5000 0.5000 0.2500 ( 36276 PWs)   bands (ev):

    -5.5602  -5.5591  -5.5357  -5.5346  -5.1095  -5.1080  -5.0624  -5.0612
    -3.8771  -3.8753  -3.8570  -3.8559  -3.7996  -3.7989  -3.7165  -3.7144
    -3.4444  -3.4428  -3.4428  -3.4412  -3.2639  -3.2623  -3.2622  -3.2606
    -2.8913  -2.8906  -2.6629  -2.6621  -2.6375  -2.6361  -2.5695  -2.5685
    -0.8393  -0.8367  -0.8300  -0.8290  -0.7867  -0.7856  -0.4694  -0.4692
    -0.4689  -0.4667  -0.3593  -0.3570  -0.2531  -0.2522   0.0932   0.0938
     0.0941   0.0961   0.3029   0.3040   0.3215   0.3226   0.4180   0.4192
     1.6536   1.6546   1.6904   1.6912   2.3249   2.3260   2.3353   2.3363
     2.8698   2.8705   2.9530   2.9538   2.9544   2.9551   2.9759   2.9771
     2.9890   2.9896   2.9901   2.9906   3.0086   3.0093   3.0422   3.0427
     3.2401   3.2410   3.2466   3.2476   3.7662   3.7675   3.7693   3.7706
     4.0093   4.0097   4.0278   4.0288   4.0291   4.0295   4.0509   4.0520
     4.1722   4.1731   4.1735   4.1744   4.4120   4.4127   4.4359   4.4362
     4.4367   4.4375   4.4609   4.4619   4.6442   4.6455   4.6457   4.6469
     5.4753   5.4760   5.4788   5.4796   5.5004   5.5016   5.5021   5.5036
     5.6112   5.6123   5.6157   5.6169   6.3463   6.3477   6.3486   6.3499
     8.0152   8.0164   8.0539   8.0552   8.2289   8.2302   8.3550   8.3558
     8.3559   8.3571   8.5248   8.5257   8.5784   8.5794   8.5867   8.5877
     8.6965   8.6976   8.7636   8.7641   8.8687   8.8694   9.0688   9.0697
     9.0918   9.0934

     the Fermi energy is     7.0384 ev

!    total energy              =    -742.10023255 Ry
     estimated scf accuracy    <          4.1E-11 Ry
     smearing contrib. (-TS)   =      -0.00012199 Ry
     internal energy E=F+TS    =    -742.10011056 Ry

     The total energy is F=E-TS. E is the sum of the following terms:
     one-electron contribution =     176.86383214 Ry
     hartree contribution      =      33.68727994 Ry
     xc contribution           =    -412.27884567 Ry
     ewald contribution        =    -540.37237696 Ry

     convergence has been achieved in  15 iterations

     Forces acting on atoms (cartesian axes, Ry/au):

     atom    1 type  1   force =    -0.00011202    0.00005271    0.02500252
     atom    2 type  1   force =    -0.00000165    0.00000348    0.02511746
     atom    3 type  1   force =     0.00000730    0.00000505    0.02512427
     atom    4 type  1   force =    -0.00003116    0.00000151    0.02508607
     atom    5 type  1   force =    -0.00000196    0.00000100    0.02511465
     atom    6 type  1   force =    -0.00012207   -0.00006505    0.02499048
     atom    7 type  1   force =    -0.00002986    0.00000043    0.02508515
     atom    8 type  1   force =     0.00000883   -0.00000470    0.02512275
     atom    9 type  1   force =     0.00009775    0.00002979    0.02508531
     atom   10 type  1   force =    -0.00000150   -0.00002205    0.02510781
     atom   11 type  1   force =     0.00014644   -0.00007986    0.02503524
     atom   12 type  1   force =     0.00000199    0.00001650    0.02510260
     atom   13 type  1   force =     0.00007678   -0.00002996    0.02508616
     atom   14 type  1   force =    -0.00000185    0.00002125    0.02510719
     atom   15 type  1   force =     0.00014315    0.00009103    0.02501826
     atom   16 type  1   force =     0.00000329   -0.00001736    0.02510060
     atom   17 type  2   force =     0.00427236    0.00020155   -0.02175975
     atom   18 type  2   force =    -0.00000708   -0.00000081   -0.02604601
     atom   19 type  2   force =    -0.00001440   -0.00000095   -0.02604602
     atom   20 type  2   force =    -0.00000019    0.00000183   -0.02592326
     atom   21 type  2   force =    -0.00001440    0.00000016   -0.02604087
     atom   22 type  2   force =     0.00000064   -0.00000085   -0.02603377
     atom   23 type  2   force =     0.00010710   -0.00000072   -0.02603378
     atom   24 type  2   force =    -0.00000783   -0.00000028   -0.02604099
     atom   25 type  2   force =    -0.00002601    0.00003029   -0.02594888
     atom   26 type  2   force =    -0.00003303   -0.00003262   -0.02595635
     atom   27 type  2   force =    -0.00009351   -0.00009302   -0.02589651
     atom   28 type  2   force =    -0.00008772    0.00009212   -0.02588674
     atom   29 type  2   force =    -0.00000897   -0.00002175   -0.02603697
     atom   30 type  2   force =    -0.00000689    0.00001984   -0.02603381
     atom   31 type  2   force =    -0.00001243    0.00001425   -0.02602822
     atom   32 type  2   force =    -0.00001503   -0.00001574   -0.02603086
     atom   33 type  1   force =    -0.00184435    0.00166168   -0.02693212
     atom   34 type  1   force =    -0.00000552    0.00002478   -0.02511058
     atom   35 type  1   force =     0.00000056    0.00001700   -0.02511102
     atom   36 type  1   force =    -0.00001291    0.00001329   -0.02517947
     atom   37 type  1   force =     0.00000646    0.00002152   -0.02512269
     atom   38 type  1   force =    -0.00001245    0.00001683   -0.02512745
     atom   39 type  1   force =    -0.00006726    0.00001122   -0.02512629
     atom   40 type  1   force =    -0.00000183    0.00001508   -0.02511726
     atom   41 type  1   force =     0.00002992    0.00000052   -0.02508909
     atom   42 type  1   force =     0.00000091   -0.00000063   -0.02516616
     atom   43 type  1   force =    -0.00018523   -0.00000524   -0.02531082
     atom   44 type  1   force =     0.00001078   -0.00000463   -0.02508952
     atom   45 type  1   force =    -0.00004982   -0.00000190   -0.02511692
     atom   46 type  1   force =     0.00001337   -0.00000019   -0.02510247
     atom   47 type  1   force =     0.00002445    0.00000345   -0.02510361
     atom   48 type  1   force =     0.00000045   -0.00000029   -0.02511566
     atom   49 type  2   force =    -0.00199106   -0.00187219    0.02403406
     atom   50 type  2   force =    -0.00000885   -0.00002091    0.02603826
     atom   51 type  2   force =     0.00000278   -0.00002040    0.02603788
     atom   52 type  2   force =    -0.00001168   -0.00001318    0.02597289
     atom   53 type  2   force =     0.00000630   -0.00002101    0.02602684
     atom   54 type  2   force =    -0.00001200   -0.00000848    0.02602301
     atom   55 type  2   force =    -0.00005861   -0.00001168    0.02602652
     atom   56 type  2   force =    -0.00000161   -0.00001520    0.02603156
     atom   57 type  2   force =     0.00002630    0.00000178    0.02606100
     atom   58 type  2   force =     0.00000065   -0.00000097    0.02598494
     atom   59 type  2   force =    -0.00009599    0.00001384    0.02591957
     atom   60 type  2   force =     0.00001351    0.00000251    0.02606062
     atom   61 type  2   force =    -0.00005300    0.00000093    0.02603229
     atom   62 type  2   force =     0.00001351   -0.00000004    0.02604661
     atom   63 type  2   force =     0.00002535   -0.00000207    0.02604565
     atom   64 type  2   force =     0.00000080   -0.00000253    0.02603571

     Total force =     0.204071     Total SCF correction =     0.000011

     Writing all to output data dir ./results4/phonon_fc.save/ :
     XML data file, charge density, pseudopotentials, collected wavefunctions

     init_run     :    136.73s CPU    137.87s WALL (       1 calls)
     electrons    :   4360.86s CPU   4394.71s WALL (       1 calls)
     forces       :     93.25s CPU     94.03s WALL (       1 calls)

     Called by init_run:
     wfcinit      :    134.81s CPU    135.89s WALL (       1 calls)
     potinit      :      0.29s CPU      0.30s WALL (       1 calls)
     hinit0       :      0.58s CPU      0.59s WALL (       1 calls)

     Called by electrons:
     c_bands      :   3922.71s CPU   3951.66s WALL (      16 calls)
     sum_band     :    424.88s CPU    428.45s WALL (      16 calls)
     v_of_rho     :      0.97s CPU      1.05s WALL (      16 calls)
     newd         :     12.88s CPU     13.48s WALL (      16 calls)
     mix_rho      :      0.14s CPU      0.15s WALL (      16 calls)

     Called by c_bands:
     init_us_2    :     24.40s CPU     24.61s WALL (    1224 calls)
     cegterg      :   3888.19s CPU   3916.03s WALL (     576 calls)

     Called by *egterg:
     cdiaghg      :    221.86s CPU    222.48s WALL (    3126 calls)
     h_psi        :   2100.64s CPU   2116.78s WALL (    3198 calls)
     s_psi        :    923.02s CPU    930.17s WALL (    3198 calls)
     g_psi        :      1.32s CPU      1.34s WALL (    2586 calls)

     Called by h_psi:
     h_psi:calbec :    948.84s CPU    955.35s WALL (    3198 calls)
     vloc_psi     :    223.08s CPU    225.46s WALL (    3198 calls)
     add_vuspsi   :    925.18s CPU    932.35s WALL (    3198 calls)

     General routines
     calbec       :   1386.84s CPU   1396.35s WALL (    3918 calls)
     fft          :      1.10s CPU      1.13s WALL (     218 calls)
     ffts         :      0.25s CPU      0.25s WALL (      32 calls)
     fftw         :    225.14s CPU    227.47s WALL (  569910 calls)
     interpolate  :      0.29s CPU      0.29s WALL (      16 calls)

     Parallel routines

     PWSCF        :      1h16m CPU      1h18m WALL


   This run was terminated on:  18:48:21  25Mar2026            

=------------------------------------------------------------------------------=
   JOB DONE.
=------------------------------------------------------------------------------=
