
     Program PWSCF v.7.3.1 starts on 25Mar2026 at 15:59:20 

     This program is part of the open-source Quantum ESPRESSO suite
     for quantum simulation of materials; please cite
         "P. Giannozzi et al., J. Phys.:Condens. Matter 21 395502 (2009);
         "P. Giannozzi et al., J. Phys.:Condens. Matter 29 465901 (2017);
         "P. Giannozzi et al., J. Chem. Phys. 152 154105 (2020);
          URL http://www.quantum-espresso.org", 
     in publications or presentations arising from this work. More details at
     http://www.quantum-espresso.org/quote

     Parallel version (MPI), running on    28 processors

     MPI processes distributed on     1 nodes
     499876 MiB available memory on the printing compute node when the environment starts

     Waiting for input...
     Reading input from standard input

     Current dimensions of program PWSCF are:
     Max number of different atomic species (ntypx) = 10
     Max number of k-points (npk) =  40000
     Max angular momentum in pseudopotentials (lmaxx) =  4

     R & G space division:  proc/nbgrp/npool/nimage =      28
     Subspace diagonalization in iterative solution of the eigenvalue problem:
     one sub-group per band group will be used
     custom distributed-memory algorithm (size of sub-group:  2*  2 procs)


     Parallelization info
     --------------------
     sticks:   dense  smooth     PW     G-vecs:    dense   smooth      PW
     Min         378     189     51                29374    10383    1469
     Max         379     190     53                29379    10388    1472
     Sum       10605    5297   1449               822577   290795   41155

     Using Slab Decomposition



     bravais-lattice index     =            0
     lattice parameter (alat)  =      20.4158  a.u.
     unit-cell volume          =    8509.4617 (a.u.)^3
     number of atoms/cell      =           64
     number of atomic types    =            2
     number of electrons       =       256.00
     number of Kohn-Sham states=          154
     kinetic-energy cutoff     =      40.0000  Ry
     charge density cutoff     =     320.0000  Ry
     scf convergence threshold =      1.0E-10
     mixing beta               =       0.7000
     number of iterations used =            8  plain     mixing
     Exchange-correlation= PBE
                           (   1   4   3   4   0   0   0)

     celldm(1)=  20.415845  celldm(2)=   0.000000  celldm(3)=   0.000000
     celldm(4)=   0.000000  celldm(5)=   0.000000  celldm(6)=   0.000000

     crystal axes: (cart. coord. in units of alat)
               a(1) = (   1.000000   0.000000   0.000000 )  
               a(2) = (   0.000000   1.000000   0.000000 )  
               a(3) = (   0.000000   0.000000   1.000000 )  

     reciprocal axes: (cart. coord. in units 2 pi/alat)
               b(1) = (  1.000000  0.000000  0.000000 )  
               b(2) = (  0.000000  1.000000  0.000000 )  
               b(3) = (  0.000000  0.000000  1.000000 )  


     PseudoPot. # 1 for Si read from file:
     ./pseudo/Si.pbe-n-rrkjus_psl.1.0.0.UPF
     MD5 check sum: fa25574f73a70a4139f2adfbefec430c
     Pseudo is Ultrasoft + core correction, Zval =  4.0
     Generated using &quot;atomic&quot; code by A. Dal Corso  v.6.3
     Using radial grid of 1141 points,  6 beta functions with: 
                l(1) =   0
                l(2) =   0
                l(3) =   1
                l(4) =   1
                l(5) =   2
                l(6) =   2
     Q(r) pseudized with 0 coefficients 


     PseudoPot. # 2 for Ge read from file:
     ./pseudo/Ge.pbe-n-rrkjus_psl.1.0.0.UPF
     MD5 check sum: a23a7f3f7456476e534e54484b27d8e8
     Pseudo is Ultrasoft + core correction, Zval =  4.0
     Generated using &quot;atomic&quot; code by A. Dal Corso  v.6.3
     Using radial grid of 1207 points,  4 beta functions with: 
                l(1) =   0
                l(2) =   0
                l(3) =   1
                l(4) =   1
     Q(r) pseudized with 0 coefficients 


     atomic species   valence    mass     pseudopotential
     Si                4.00    28.08500     Si( 1.00)
     Ge                4.00    72.63000     Ge( 1.00)

     No symmetry found



   Cartesian axes

     site n.     atom                  positions (alat units)
         1        Si     tau(   1) = (   0.0006545   0.0000000   0.0006545  )
         2        Si     tau(   2) = (   0.5000000   0.0000000   0.0000000  )
         3        Si     tau(   3) = (   0.0000000   0.5000000   0.0000000  )
         4        Si     tau(   4) = (   0.5000000   0.5000000   0.0000000  )
         5        Si     tau(   5) = (   0.0000000   0.0000000   0.5000000  )
         6        Si     tau(   6) = (   0.5000000   0.0000000   0.5000000  )
         7        Si     tau(   7) = (   0.0000000   0.5000000   0.5000000  )
         8        Si     tau(   8) = (   0.5000000   0.5000000   0.5000000  )
         9        Si     tau(   9) = (   0.2500000   0.2500000   0.0000000  )
        10        Si     tau(  10) = (   0.7500000   0.2500000   0.0000000  )
        11        Si     tau(  11) = (   0.2500000   0.7500000   0.0000000  )
        12        Si     tau(  12) = (   0.7500000   0.7500000   0.0000000  )
        13        Si     tau(  13) = (   0.2500000   0.2500000   0.5000000  )
        14        Si     tau(  14) = (   0.7500000   0.2500000   0.5000000  )
        15        Si     tau(  15) = (   0.2500000   0.7500000   0.5000000  )
        16        Si     tau(  16) = (   0.7500000   0.7500000   0.5000000  )
        17        Ge     tau(  17) = (   0.2500000   0.0000000   0.2500000  )
        18        Ge     tau(  18) = (   0.7500000   0.0000000   0.2500000  )
        19        Ge     tau(  19) = (   0.2500000   0.5000000   0.2500000  )
        20        Ge     tau(  20) = (   0.7500000   0.5000000   0.2500000  )
        21        Ge     tau(  21) = (   0.2500000   0.0000000   0.7500000  )
        22        Ge     tau(  22) = (   0.7500000   0.0000000   0.7500000  )
        23        Ge     tau(  23) = (   0.2500000   0.5000000   0.7500000  )
        24        Ge     tau(  24) = (   0.7500000   0.5000000   0.7500000  )
        25        Ge     tau(  25) = (   0.0000000   0.2500000   0.2500000  )
        26        Ge     tau(  26) = (   0.5000000   0.2500000   0.2500000  )
        27        Ge     tau(  27) = (   0.0000000   0.7500000   0.2500000  )
        28        Ge     tau(  28) = (   0.5000000   0.7500000   0.2500000  )
        29        Ge     tau(  29) = (   0.0000000   0.2500000   0.7500000  )
        30        Ge     tau(  30) = (   0.5000000   0.2500000   0.7500000  )
        31        Ge     tau(  31) = (   0.0000000   0.7500000   0.7500000  )
        32        Ge     tau(  32) = (   0.5000000   0.7500000   0.7500000  )
        33        Si     tau(  33) = (   0.1250000   0.1250000   0.1250000  )
        34        Si     tau(  34) = (   0.6250000   0.1250000   0.1250000  )
        35        Si     tau(  35) = (   0.1250000   0.6250000   0.1250000  )
        36        Si     tau(  36) = (   0.6250000   0.6250000   0.1250000  )
        37        Si     tau(  37) = (   0.1250000   0.1250000   0.6250000  )
        38        Si     tau(  38) = (   0.6250000   0.1250000   0.6250000  )
        39        Si     tau(  39) = (   0.1250000   0.6250000   0.6250000  )
        40        Si     tau(  40) = (   0.6250000   0.6250000   0.6250000  )
        41        Si     tau(  41) = (   0.3750000   0.3750000   0.1250000  )
        42        Si     tau(  42) = (   0.8750000   0.3750000   0.1250000  )
        43        Si     tau(  43) = (   0.3750000   0.8750000   0.1250000  )
        44        Si     tau(  44) = (   0.8750000   0.8750000   0.1250000  )
        45        Si     tau(  45) = (   0.3750000   0.3750000   0.6250000  )
        46        Si     tau(  46) = (   0.8750000   0.3750000   0.6250000  )
        47        Si     tau(  47) = (   0.3750000   0.8750000   0.6250000  )
        48        Si     tau(  48) = (   0.8750000   0.8750000   0.6250000  )
        49        Ge     tau(  49) = (   0.3750000   0.1250000   0.3750000  )
        50        Ge     tau(  50) = (   0.8750000   0.1250000   0.3750000  )
        51        Ge     tau(  51) = (   0.3750000   0.6250000   0.3750000  )
        52        Ge     tau(  52) = (   0.8750000   0.6250000   0.3750000  )
        53        Ge     tau(  53) = (   0.3750000   0.1250000   0.8750000  )
        54        Ge     tau(  54) = (   0.8750000   0.1250000   0.8750000  )
        55        Ge     tau(  55) = (   0.3750000   0.6250000   0.8750000  )
        56        Ge     tau(  56) = (   0.8750000   0.6250000   0.8750000  )
        57        Ge     tau(  57) = (   0.1250000   0.3750000   0.3750000  )
        58        Ge     tau(  58) = (   0.6250000   0.3750000   0.3750000  )
        59        Ge     tau(  59) = (   0.1250000   0.8750000   0.3750000  )
        60        Ge     tau(  60) = (   0.6250000   0.8750000   0.3750000  )
        61        Ge     tau(  61) = (   0.1250000   0.3750000   0.8750000  )
        62        Ge     tau(  62) = (   0.6250000   0.3750000   0.8750000  )
        63        Ge     tau(  63) = (   0.1250000   0.8750000   0.8750000  )
        64        Ge     tau(  64) = (   0.6250000   0.8750000   0.8750000  )

     number of k points=    36  Gaussian smearing, width (Ry)=  0.0100
                       cart. coord. in units 2pi/alat
        k(    1) = (   0.0000000   0.0000000   0.0000000), wk =   0.0312500
        k(    2) = (   0.0000000   0.0000000   0.2500000), wk =   0.0625000
        k(    3) = (   0.0000000   0.0000000  -0.5000000), wk =   0.0312500
        k(    4) = (   0.0000000   0.2500000   0.2500000), wk =   0.0625000
        k(    5) = (   0.0000000   0.2500000  -0.5000000), wk =   0.0625000
        k(    6) = (   0.0000000  -0.5000000  -0.5000000), wk =   0.0312500
        k(    7) = (   0.2500000   0.2500000   0.2500000), wk =   0.0625000
        k(    8) = (   0.2500000   0.2500000  -0.5000000), wk =   0.0625000
        k(    9) = (   0.2500000  -0.5000000  -0.5000000), wk =   0.0625000
        k(   10) = (  -0.5000000  -0.5000000  -0.5000000), wk =   0.0312500
        k(   11) = (   0.2500000   0.0000000   0.0000000), wk =   0.0625000
        k(   12) = (   0.0000000   0.2500000   0.0000000), wk =   0.0625000
        k(   13) = (  -0.5000000   0.0000000   0.0000000), wk =   0.0312500
        k(   14) = (   0.0000000  -0.5000000   0.0000000), wk =   0.0312500
        k(   15) = (   0.0000000  -0.2500000   0.2500000), wk =   0.0625000
        k(   16) = (   0.2500000   0.0000000  -0.2500000), wk =   0.0625000
        k(   17) = (  -0.2500000   0.0000000  -0.2500000), wk =   0.0625000
        k(   18) = (   0.2500000  -0.2500000   0.0000000), wk =   0.0625000
        k(   19) = (  -0.2500000  -0.2500000   0.0000000), wk =   0.0625000
        k(   20) = (   0.2500000   0.0000000   0.5000000), wk =   0.0625000
        k(   21) = (  -0.5000000  -0.2500000   0.0000000), wk =   0.0625000
        k(   22) = (   0.0000000  -0.5000000   0.2500000), wk =   0.0625000
        k(   23) = (   0.2500000  -0.5000000   0.0000000), wk =   0.0625000
        k(   24) = (  -0.5000000   0.0000000   0.2500000), wk =   0.0625000
        k(   25) = (  -0.5000000   0.0000000   0.5000000), wk =   0.0312500
        k(   26) = (  -0.5000000   0.5000000   0.0000000), wk =   0.0312500
        k(   27) = (  -0.2500000  -0.2500000   0.2500000), wk =   0.0625000
        k(   28) = (  -0.2500000   0.2500000  -0.2500000), wk =   0.0625000
        k(   29) = (   0.2500000  -0.2500000  -0.2500000), wk =   0.0625000
        k(   30) = (  -0.2500000   0.2500000   0.5000000), wk =   0.0625000
        k(   31) = (  -0.5000000  -0.2500000   0.2500000), wk =   0.0625000
        k(   32) = (   0.5000000  -0.2500000  -0.2500000), wk =   0.0625000
        k(   33) = (  -0.2500000  -0.5000000   0.2500000), wk =   0.0625000
        k(   34) = (  -0.2500000   0.5000000  -0.2500000), wk =   0.0625000
        k(   35) = (  -0.5000000   0.2500000   0.5000000), wk =   0.0625000
        k(   36) = (  -0.5000000   0.5000000   0.2500000), wk =   0.0625000

     Dense  grid:   822577 G-vectors     FFT dimensions: ( 120, 120, 120)

     Smooth grid:   290795 G-vectors     FFT dimensions: (  90,  90,  90)

     Estimated max dynamical RAM per process >     275.99 MB

     Estimated total dynamical RAM >       7.55 GB

     Initial potential from superposition of free atoms

     starting charge     255.9576, renormalised to     256.0000
     Starting wfcs are  256 randomized atomic wfcs

     total cpu time spent up to now is      138.8 secs

     per-process dynamical memory:   189.1 Mb

     Self-consistent Calculation

     iteration #  1     ecut=    40.00 Ry     beta= 0.70
     Davidson diagonalization with overlap
     ethr =  1.00E-02,  avg # of iterations =  3.2

     Threshold (ethr) on eigenvalues was too large:
     Diagonalizing with lowered threshold

     Davidson diagonalization with overlap
     ethr =  5.56E-04,  avg # of iterations =  2.8

     total cpu time spent up to now is      657.0 secs

     total energy              =    -742.01698826 Ry
     estimated scf accuracy    <       1.52719035 Ry

     iteration #  2     ecut=    40.00 Ry     beta= 0.70
     Davidson diagonalization with overlap
     ethr =  5.97E-04,  avg # of iterations =  1.3

     total cpu time spent up to now is      861.9 secs

     total energy              =    -742.08543196 Ry
     estimated scf accuracy    <       0.07735100 Ry

     iteration #  3     ecut=    40.00 Ry     beta= 0.70
     Davidson diagonalization with overlap
     c_bands:  1 eigenvalues not converged
     c_bands:  1 eigenvalues not converged
     c_bands:  2 eigenvalues not converged
     c_bands:  2 eigenvalues not converged
     c_bands:  1 eigenvalues not converged
     c_bands:  1 eigenvalues not converged
     c_bands:  1 eigenvalues not converged
     c_bands:  1 eigenvalues not converged
     c_bands:  1 eigenvalues not converged
     ethr =  3.02E-05,  avg # of iterations = 14.4

     total cpu time spent up to now is     1242.5 secs

     total energy              =    -742.09751496 Ry
     estimated scf accuracy    <       0.00753213 Ry

     iteration #  4     ecut=    40.00 Ry     beta= 0.70
     Davidson diagonalization with overlap
     c_bands:  2 eigenvalues not converged
     c_bands:  3 eigenvalues not converged
     c_bands:  2 eigenvalues not converged
     c_bands:  1 eigenvalues not converged
     c_bands:  1 eigenvalues not converged
     c_bands:  5 eigenvalues not converged
     c_bands:  2 eigenvalues not converged
     c_bands:  3 eigenvalues not converged
     c_bands:  5 eigenvalues not converged
     c_bands:  1 eigenvalues not converged
     c_bands:  2 eigenvalues not converged
     c_bands:  4 eigenvalues not converged
     c_bands:  1 eigenvalues not converged
     ethr =  2.94E-06,  avg # of iterations = 13.5

     total cpu time spent up to now is     1609.9 secs

     total energy              =    -742.09989045 Ry
     estimated scf accuracy    <       0.00136942 Ry

     iteration #  5     ecut=    40.00 Ry     beta= 0.70
     Davidson diagonalization with overlap
     c_bands:  2 eigenvalues not converged
     c_bands:  2 eigenvalues not converged
     c_bands:  1 eigenvalues not converged
     ethr =  5.35E-07,  avg # of iterations =  6.5

     total cpu time spent up to now is     1897.0 secs

     total energy              =    -742.10018663 Ry
     estimated scf accuracy    <       0.00014240 Ry

     iteration #  6     ecut=    40.00 Ry     beta= 0.70
     Davidson diagonalization with overlap
     ethr =  5.56E-08,  avg # of iterations =  3.8

     total cpu time spent up to now is     2157.9 secs

     total energy              =    -742.10021607 Ry
     estimated scf accuracy    <       0.00003700 Ry

     iteration #  7     ecut=    40.00 Ry     beta= 0.70
     Davidson diagonalization with overlap
     c_bands:  4 eigenvalues not converged
     ethr =  1.45E-08,  avg # of iterations =  2.7

     total cpu time spent up to now is     2417.2 secs

     total energy              =    -742.10022184 Ry
     estimated scf accuracy    <       0.00000680 Ry

     iteration #  8     ecut=    40.00 Ry     beta= 0.70
     Davidson diagonalization with overlap
     ethr =  2.66E-09,  avg # of iterations =  3.5

     total cpu time spent up to now is     2681.3 secs

     total energy              =    -742.10022353 Ry
     estimated scf accuracy    <       0.00000066 Ry

     iteration #  9     ecut=    40.00 Ry     beta= 0.70
     Davidson diagonalization with overlap
     ethr =  2.57E-10,  avg # of iterations =  4.1

     total cpu time spent up to now is     2986.7 secs

     total energy              =    -742.10022364 Ry
     estimated scf accuracy    <       0.00000085 Ry

     iteration # 10     ecut=    40.00 Ry     beta= 0.70
     Davidson diagonalization with overlap
     ethr =  2.57E-10,  avg # of iterations =  2.1

     total cpu time spent up to now is     3228.3 secs

     total energy              =    -742.10022378 Ry
     estimated scf accuracy    <       0.00000005 Ry

     iteration # 11     ecut=    40.00 Ry     beta= 0.70
     Davidson diagonalization with overlap
     ethr =  2.02E-11,  avg # of iterations =  3.3

     total cpu time spent up to now is     3498.0 secs

     total energy              =    -742.10022379 Ry
     estimated scf accuracy    <       0.00000002 Ry

     iteration # 12     ecut=    40.00 Ry     beta= 0.70
     Davidson diagonalization with overlap
     ethr =  7.33E-12,  avg # of iterations =  2.1

     total cpu time spent up to now is     3752.3 secs

     total energy              =    -742.10022380 Ry
     estimated scf accuracy    <          3.1E-09 Ry

     iteration # 13     ecut=    40.00 Ry     beta= 0.70
     Davidson diagonalization with overlap
     ethr =  1.22E-12,  avg # of iterations =  3.5

     total cpu time spent up to now is     4020.5 secs

     total energy              =    -742.10022380 Ry
     estimated scf accuracy    <          1.7E-09 Ry

     iteration # 14     ecut=    40.00 Ry     beta= 0.70
     Davidson diagonalization with overlap
     ethr =  6.50E-13,  avg # of iterations =  2.0

     total cpu time spent up to now is     4260.5 secs

     total energy              =    -742.10022380 Ry
     estimated scf accuracy    <          3.1E-10 Ry

     iteration # 15     ecut=    40.00 Ry     beta= 0.70
     Davidson diagonalization with overlap
     ethr =  1.21E-13,  avg # of iterations =  2.2

     total cpu time spent up to now is     4515.1 secs

     End of self-consistent calculation

          k = 0.0000 0.0000 0.0000 ( 36377 PWs)   bands (ev):

    -6.1612  -5.3660  -5.0569  -5.0562  -5.0562  -5.0548  -4.6259  -4.4919
    -4.3813  -4.3812  -4.3811  -4.3793  -4.2571  -4.0339  -4.0327  -3.7623
    -3.7610  -3.6424  -3.6402  -3.6401  -3.6392  -3.4925  -3.1487  -2.2470
    -2.2463  -2.1083  -2.1074  -1.8124  -1.7316  -1.6755  -1.6751  -1.6750
    -1.6723  -1.5635  -1.5604  -1.5602  -1.5596  -1.3430  -1.3412  -1.1639
    -1.1621  -1.0072  -0.7570  -0.7555  -0.6166   0.3217   0.4848   0.4863
     0.4864   0.4873   0.7392   0.7407   0.9370   0.9385   0.9388   0.9399
     1.0700   2.5045   2.5758   2.5766   2.6033   2.6038   2.6038   2.6043
     2.6049   2.6053   2.6054   2.6059   2.6338   2.6340   2.6844   2.6857
     2.6861   2.6865   2.6873   2.6962   2.6970   2.7144   2.7157   2.7161
     2.7166   2.7167   2.8105   2.8121   2.8122   2.8136   3.0729   3.6362
     3.6369   3.6440   3.6453   3.6534   3.6537   4.6256   4.6723   4.7097
     4.7112   4.7116   4.7116   4.7119   4.7119   4.7124   4.7139   4.7507
     4.7995   5.2534   5.3047   5.3051   5.3061   5.3074   5.3240   5.3257
     5.3396   5.3403   5.3406   5.3417   5.3584   5.3885   5.3957   5.4542
     5.4551   5.4593   5.4614   5.5269   5.5628   6.8176   6.8537   6.8616
     7.2812   7.2827   7.3838   7.4942   7.5780   7.6154   7.6166   7.6538
     7.8441   7.8455   7.8456   7.8468   8.0208   8.0213   8.0442   8.4647
     9.0025   9.0414   9.0429   9.0433   9.0448   9.2273   9.2289   9.4268
     9.4341   9.4402

          k = 0.0000 0.0000 0.2500 ( 36317 PWs)   bands (ev):

    -6.0945  -5.5969  -4.9972  -4.9965  -4.9965  -4.9951  -4.5648  -4.5644
    -4.5643  -4.5628  -4.4614  -4.2961  -4.2637  -3.9994  -3.9982  -3.8085
    -3.8073  -3.4510  -3.3640  -3.3624  -3.3623  -3.3612  -3.2105  -2.7286
    -2.2294  -2.2282  -2.2280  -2.2279  -2.2278  -2.2259  -2.1299  -2.1290
    -1.3189  -1.3171  -1.1926  -1.1908  -1.0345  -1.0331  -1.0330  -1.0320
    -0.8581  -0.7231  -0.5945  -0.5930  -0.4339   0.0434   0.0725   0.0738
     0.0740   0.0751   0.4043   0.4057   0.6732   1.3816   1.3830   1.3832
     1.3845   1.5524   2.2705   2.2710   2.2713   2.2716   2.3568   2.3572
     2.3576   2.3581   2.5606   2.5625   2.5626   2.5640   2.7009   2.7017
     2.7564   2.7567   3.1205   3.1470   3.1480   3.1829   3.1870   3.1877
     3.1878   3.1886   3.2029   3.2034   3.2038   3.2044   3.4455   3.4460
     3.4536   3.4544   3.7119   3.7134   4.0332   4.2460   4.2510   4.4150
     4.4160   4.4161   4.4170   4.7580   4.7591   4.7591   4.7602   4.8846
     4.8852   4.8854   4.8860   4.9710   4.9756   4.9764   4.9776   5.2679
     5.2810   5.2882   5.3420   5.3428   5.3444   5.4122   5.4305   5.4314
     5.4318   5.4325   5.4382   5.4404   5.5352   6.2763   6.5442   6.5507
     7.2640   7.4673   7.6848   7.6862   7.7955   7.9779   7.9791   8.1113
     8.2749   8.2760   8.2765   8.2773   8.3288   8.4353   8.4360   8.7396
     9.0247   9.1149   9.1617   9.1631   9.1634   9.1643   9.2172   9.2187
     9.3013   9.3704

          k = 0.0000 0.0000-0.5000 ( 36434 PWs)   bands (ev):

    -5.8990  -5.8979  -4.8246  -4.8232  -4.8232  -4.8230  -4.8229  -4.8227
    -4.8226  -4.8195  -4.3835  -4.3826  -3.9102  -3.9096  -3.9094  -3.9076
    -3.5713  -3.5695  -3.3412  -3.3398  -2.8329  -2.8295  -2.8293  -2.8292
    -2.8291  -2.8290  -2.8288  -2.8260  -2.1803  -2.1802  -2.1800  -2.1785
    -1.2593  -1.2568  -1.2568  -1.2557  -0.4797  -0.4766  -0.4766  -0.4763
    -0.4762  -0.4760  -0.4759  -0.4736  -0.4606  -0.4591  -0.1613  -0.1588
    -0.1585  -0.1580   0.0454   0.0472   0.3939   0.3951   1.9892   1.9910
     1.9912   1.9913   1.9914   1.9917   1.9922   1.9945   2.2142   2.2149
     2.2159   2.2164   2.2166   2.2167   2.2174   2.2179   3.0356   3.0361
     3.0364   3.0371   3.0769   3.0777   3.0780   3.0781   3.8099   3.8107
     3.8113   3.8114   3.8116   3.8119   3.8126   3.8134   3.9136   3.9151
     3.9160   3.9174   3.9565   3.9569   3.9579   3.9582   3.9584   3.9586
     3.9593   3.9600   3.9992   4.0003   4.0481   4.0490   4.0494   4.0501
     4.0971   4.0980   5.2054   5.2066   5.2076   5.2081   5.2085   5.2088
     5.2088   5.2091   5.2096   5.2111   5.3029   5.3060   5.3889   5.3895
     5.3895   5.3927   5.4715   5.4721   5.9217   5.9238   5.9272   5.9295
     7.2921   7.2933   8.3051   8.3066   8.6858   8.6876   8.6879   8.6886
     8.8878   8.8883   8.9006   8.9012   8.9019   8.9032   8.9419   8.9422
     9.0150   9.0171   9.0305   9.0309   9.0312   9.0326   9.2532   9.2556
     9.2558   9.2562

          k = 0.0000 0.2500 0.2500 ( 36395 PWs)   bands (ev):

    -6.0249  -5.5306  -5.4724  -5.0082  -4.9536  -4.9206  -4.5918  -4.5492
    -4.4876  -4.4134  -4.3963  -4.3505  -4.2039  -4.0786  -4.0145  -3.7416
    -3.5779  -3.5044  -3.3950  -3.3118  -3.2406  -3.2154  -2.9158  -2.9113
    -2.7187  -2.6886  -2.4902  -2.4097  -2.3893  -2.0699  -2.0277  -1.9482
    -1.5411  -1.2698  -1.2386  -0.9224  -0.8690  -0.8487  -0.8180  -0.7318
    -0.7183  -0.6492  -0.5783  -0.4197  -0.2358  -0.2023  -0.1896  -0.1658
    -0.1632  -0.0999   0.5840   0.6819   0.9910   0.9949   1.0233   1.0357
     1.4168   1.4862   2.0817   2.1165   2.1974   2.2481   2.2503   2.2524
     2.3078   2.3671   2.5458   2.5499   2.7358   2.7364   2.7402   2.7420
     2.8108   2.8145   2.9351   3.1447   3.1466   3.4091   3.4104   3.4398
     3.4418   3.4770   3.4779   3.5729   3.5740   3.6107   3.6145   3.6504
     3.6527   3.6545   3.6559   3.7365   3.7656   3.9685   3.9693   4.2937
     4.2956   4.3957   4.4011   4.5547   4.5591   4.6048   4.6081   4.6568
     4.7996   4.8007   4.8028   4.8071   4.8075   4.8089   4.9781   4.9817
     5.1151   5.1414   5.2057   5.2098   5.3226   5.3518   5.4226   5.4237
     5.4264   5.4283   5.5718   5.6004   5.6056   5.9907   6.2403   6.7698
     7.4920   7.6772   7.7565   7.8942   7.9323   8.1331   8.1546   8.3239
     8.4857   8.4920   8.4979   8.5238   8.6925   8.7185   8.7476   8.9217
     9.0803   9.0938   9.1246   9.1537   9.1877   9.2240   9.2775   9.4029
     9.4247   9.5223

          k = 0.0000 0.2500-0.5000 ( 36408 PWs)   bands (ev):

    -5.8305  -5.8294  -5.2884  -5.2873  -4.7888  -4.7878  -4.7483  -4.7472
    -4.4828  -4.4819  -4.2754  -4.2743  -4.2406  -4.2395  -3.5194  -3.5177
    -3.5116  -3.5102  -3.2150  -3.2135  -3.1295  -3.1278  -2.9260  -2.9244
    -2.8494  -2.8478  -2.8242  -2.8231  -2.5061  -2.5044  -1.9821  -1.9808
    -1.4180  -1.4169  -0.8390  -0.8375  -0.6135  -0.6123  -0.5995  -0.5988
    -0.5819  -0.5809  -0.5506  -0.5495  -0.5001  -0.4986  -0.1263  -0.1248
     0.3359   0.3372   0.3535   0.3551   0.3759   0.3775   1.1331   1.1342
     1.6258   1.6270   1.6471   1.6484   2.0353   2.0360   2.4494   2.4503
     2.4630   2.4639   2.4863   2.4871   2.5714   2.5719   2.8846   2.8861
     2.9968   2.9969   3.3099   3.3104   3.3890   3.3893   3.5470   3.5480
     3.5495   3.5505   3.6502   3.6509   3.6873   3.6883   3.7957   3.7968
     3.8518   3.8527   4.0507   4.0516   4.0630   4.0642   4.1424   4.1435
     4.1914   4.1923   4.2021   4.2034   4.3636   4.3640   4.4178   4.4190
     4.4898   4.4901   4.4928   4.4930   4.6205   4.6220   4.9357   4.9376
     4.9491   4.9507   5.1429   5.1432   5.1438   5.1442   5.3857   5.3873
     5.3953   5.3964   5.6200   5.6205   6.0011   6.0029   6.3419   6.3438
     7.7111   7.7123   8.0638   8.0650   8.5195   8.5208   8.6201   8.6215
     8.7090   8.7094   8.9788   8.9794   9.0030   9.0036   9.0450   9.0453
     9.0651   9.0661   9.1069   9.1077   9.2604   9.2626   9.3008   9.3010
     9.3030   9.3037

          k = 0.0000-0.5000-0.5000 ( 36332 PWs)   bands (ev):

    -5.6263  -5.6257  -5.6256  -5.6242  -4.6602  -4.6598  -4.6595  -4.6579
    -4.5632  -4.5624  -4.5622  -4.5605  -3.5594  -3.5593  -3.5588  -3.5578
    -3.3685  -3.3667  -3.3665  -3.3651  -3.1581  -3.1575  -3.1572  -3.1554
    -2.9923  -2.9898  -2.9897  -2.9894  -2.2016  -2.2001  -2.1999  -2.1983
    -1.1724  -1.1706  -1.1704  -1.1693  -0.6915  -0.6914  -0.6908  -0.6885
    -0.6251  -0.6224  -0.6220  -0.6218   0.1583   0.1598   0.1599   0.1611
     0.2521   0.2532   0.2533   0.2542   0.9793   0.9795   0.9802   0.9818
     0.9866   0.9883   0.9890   0.9892   2.1264   2.1270   2.1272   2.1278
     2.9912   2.9919   2.9926   2.9933   2.9940   2.9949   2.9955   2.9962
     3.1060   3.1067   3.1069   3.1073   3.1118   3.1120   3.1125   3.1127
     3.7154   3.7174   3.7176   3.7191   3.7662   3.7663   3.7670   3.7671
     3.8049   3.8058   3.8062   3.8074   4.1121   4.1131   4.1134   4.1144
     4.4056   4.4061   4.4067   4.4079   4.4090   4.4103   4.4109   4.4115
     4.7264   4.7279   4.7279   4.7289   4.7350   4.7358   4.7360   4.7374
     5.0003   5.0007   5.0007   5.0011   5.0369   5.0387   5.0394   5.0399
     5.0432   5.0435   5.0442   5.0461   6.4973   6.4994   6.4998   6.5018
     7.9305   7.9320   7.9323   7.9333   8.7118   8.7128   8.7135   8.7139
     8.7764   8.7767   8.7768   8.7774   8.9442   8.9456   8.9459   8.9465
     8.9903   8.9913   8.9917   8.9923   9.4091   9.4093   9.4099   9.4113
     9.7345   9.7350

          k = 0.2500 0.2500 0.2500 ( 36381 PWs)   bands (ev):

    -5.9531  -5.4603  -5.4179  -5.4171  -4.9705  -4.9698  -4.8633  -4.4521
    -4.3185  -4.3177  -4.3140  -4.1516  -4.1496  -3.9378  -3.9370  -3.6818
    -3.6805  -3.5845  -3.3099  -3.1657  -3.1169  -3.0720  -3.0440  -3.0431
    -3.0188  -2.6638  -2.5550  -2.5539  -2.4554  -2.4542  -2.2124  -2.0096
    -1.2654  -1.1886  -0.8705  -0.8695  -0.8220  -0.8019  -0.8007  -0.7415
    -0.5883  -0.5250  -0.5225  -0.4742  -0.4647  -0.3646  -0.3314  -0.0136
     0.3188   0.3195   0.3207   0.4084   0.4091   0.6570   1.2376   1.3049
     1.3071   1.6637   1.6648   1.6774   2.3274   2.3665   2.3672   2.3751
     2.3759   2.4284   2.4315   2.4321   2.4332   3.0211   3.0359   3.0496
     3.1153   3.1399   3.1404   3.1481   3.1490   3.1711   3.1780   3.1789
     3.1850   3.5414   3.5471   3.5479   3.5498   3.5510   3.5589   3.8167
     3.8301   3.8479   3.8531   3.8537   3.8542   4.1782   4.2271   4.2289
     4.2301   4.2393   4.2891   4.3509   4.3563   4.3568   4.6219   4.6597
     4.6608   4.6670   4.6681   4.7024   4.7050   4.7060   4.7067   4.9637
     5.0020   5.0596   5.1242   5.3464   5.3469   5.3530   5.3875   5.3899
     5.3930   5.5855   5.5917   5.9445   5.9450   5.9471   6.5002   6.5167
     7.4710   7.6501   7.8070   8.0755   8.0945   8.0953   8.1486   8.5970
     8.5979   8.6021   8.6249   8.6256   8.6791   8.9008   8.9075   8.9414
     8.9497   8.9507   9.1261   9.1735   9.1748   9.1840   9.1860   9.2196
     9.2633   9.2711

          k = 0.2500 0.2500-0.5000 ( 36310 PWs)   bands (ev):

    -5.7595  -5.7584  -5.2389  -5.2382  -5.2380  -5.2363  -4.6991  -4.6980
    -4.2366  -4.2357  -4.1645  -4.1639  -4.1638  -4.1620  -3.4756  -3.4738
    -3.2968  -3.2953  -3.2013  -3.1998  -3.1059  -3.1034  -3.1032  -3.1024
    -3.0964  -3.0952  -2.7561  -2.7552  -2.7551  -2.7531  -2.1192  -2.1180
    -1.2212  -1.2201  -0.7252  -0.7223  -0.7220  -0.7216  -0.6388  -0.6373
    -0.4567  -0.4553  -0.3849  -0.3846  -0.2752  -0.2745  -0.2740  -0.2722
     0.0875   0.0893   0.2575   0.2588   0.8862   0.8889   0.8891   0.8897
     0.9621   0.9638   2.2950   2.2961   2.2964   2.2969   2.3725   2.3731
     2.3736   2.3750   2.5835   2.5843   2.6504   2.6515   2.7442   2.7454
     2.7458   2.7464   3.2515   3.2523   3.3386   3.3399   3.5478   3.5482
     3.5490   3.5496   3.6954   3.6964   3.7661   3.7671   3.7759   3.7765
     3.8259   3.8276   3.9792   3.9813   3.9816   3.9822   4.0272   4.0286
     4.0767   4.0782   4.2151   4.2160   4.2165   4.2168   4.4831   4.4841
     4.4845   4.4847   4.7690   4.7717   4.8367   4.8389   4.8394   4.8396
     4.8441   4.8457   4.8893   4.8898   5.0720   5.0727   5.8087   5.8106
     5.8815   5.8826   5.8830   5.8843   5.9534   5.9556   6.1866   6.1881
     7.7988   7.8003   8.0137   8.0149   8.3089   8.3102   8.6081   8.6093
     8.6098   8.6105   8.6403   8.6407   8.7254   8.7269   8.7274   8.7280
     8.8077   8.8089   8.9156   8.9168   8.9423   8.9443   9.2740   9.2742
     9.2754   9.2758

          k = 0.2500-0.5000-0.5000 ( 36276 PWs)   bands (ev):

    -5.5670  -5.5659  -5.5532  -5.5521  -5.0707  -5.0697  -5.0163  -5.0151
    -4.1933  -4.1924  -4.0014  -4.0003  -3.6271  -3.6261  -3.4775  -3.4764
    -3.3431  -3.3413  -3.3223  -3.3205  -3.2308  -3.2296  -3.1807  -3.1791
    -3.0876  -3.0860  -2.9368  -2.9354  -2.6891  -2.6878  -2.4017  -2.4003
    -0.9568  -0.9556  -0.7514  -0.7501  -0.6319  -0.6306  -0.5502  -0.5489
    -0.5221  -0.5206  -0.4899  -0.4884   0.0354   0.0369   0.0371   0.0384
     0.1104   0.1117   0.1725   0.1735   0.3756   0.3771   0.4099   0.4114
     1.6528   1.6543   1.6735   1.6751   2.3335   2.3342   2.3343   2.3350
     2.9456   2.9468   2.9517   2.9528   2.9547   2.9559   2.9565   2.9574
     2.9657   2.9667   2.9898   2.9904   2.9908   2.9913   2.9941   2.9949
     3.2442   3.2457   3.2813   3.2829   3.7622   3.7632   3.7677   3.7690
     4.0264   4.0264   4.0269   4.0277   4.0280   4.0287   4.0292   4.0293
     4.1736   4.1747   4.1772   4.1781   4.4292   4.4306   4.4333   4.4342
     4.4346   4.4356   4.4382   4.4392   4.6486   4.6497   4.6591   4.6599
     5.4827   5.4838   5.4841   5.4851   5.4941   5.4955   5.4985   5.4998
     5.6085   5.6100   5.6124   5.6139   6.3428   6.3447   6.3462   6.3480
     7.9718   7.9732   8.0264   8.0276   8.3270   8.3287   8.3673   8.3685
     8.3717   8.3720   8.4474   8.4483   8.5418   8.5432   8.6454   8.6466
     8.7367   8.7372   8.7671   8.7680   8.8500   8.8506   8.8585   8.8600
     8.9037   8.9045

          k =-0.5000-0.5000-0.5000 ( 36120 PWs)   bands (ev):

    -5.3797  -5.3790  -5.3788  -5.3773  -5.3494  -5.3485  -5.3485  -5.3467
    -3.8011  -3.8008  -3.8006  -3.7991  -3.3593  -3.3581  -3.3581  -3.3579
    -3.3578  -3.3577  -3.3574  -3.3541  -3.2660  -3.2647  -3.2646  -3.2625
    -3.2180  -3.2155  -3.2153  -3.2144  -2.7885  -2.7856  -2.7854  -2.7850
    -0.5991  -0.5988  -0.5986  -0.5963  -0.2575  -0.2567  -0.2561  -0.2545
    -0.2497  -0.2478  -0.2471  -0.2469  -0.1973  -0.1923  -0.1918  -0.1918
    -0.1916  -0.1915  -0.1911  -0.1907   0.0766   0.0775   0.0777   0.0812
     2.3991   2.3997   2.4003   2.4017   2.4376   2.4392   2.4401   2.4402
     2.8586   2.8595   2.8598   2.8605   2.9156   2.9164   2.9171   2.9173
     2.9174   2.9177   2.9186   2.9193   2.9203   2.9206   2.9212   2.9225
     2.9479   2.9490   2.9500   2.9503   2.9774   2.9784   2.9795   2.9807
     4.3199   4.3205   4.3213   4.3232   4.3505   4.3531   4.3536   4.3540
     4.3541   4.3542   4.3543   4.3547   4.3549   4.3551   4.3554   4.3554
     4.3557   4.3560   4.3565   4.3588   4.3923   4.3927   4.3928   4.3940
     5.9571   5.9600   5.9605   5.9611   5.9639   5.9655   5.9659   5.9665
     5.9670   5.9672   5.9673   5.9678   5.9679   5.9684   5.9685   5.9739
     8.1075   8.1092   8.1096   8.1106   8.2327   8.2357   8.2358   8.2363
     8.2719   8.2726   8.2728   8.2730   8.2750   8.2762   8.2767   8.2768
     8.2770   8.2773   8.2781   8.2792   8.4657   8.4659   8.4661   8.4687
     8.5484   8.5498

          k = 0.2500 0.0000 0.0000 ( 36317 PWs)   bands (ev):

    -6.0912  -5.5355  -5.3023  -5.0110  -4.9800  -4.8021  -4.6324  -4.5618
    -4.4623  -4.4507  -4.3919  -4.2957  -4.2859  -4.0606  -3.9428  -3.8648
    -3.6642  -3.6625  -3.5506  -3.5099  -3.2560  -3.2298  -3.1310  -2.9441
    -2.6671  -2.2927  -2.1633  -2.0540  -1.9361  -1.7918  -1.7158  -1.7095
    -1.6895  -1.5924  -1.5888  -1.5738  -1.1936  -1.0892  -0.9808  -0.8185
    -0.7117  -0.6864  -0.5750  -0.4865  -0.4641  -0.1194  -0.0103   0.1452
     0.1506   0.2130   0.3601   0.5336   0.6194   1.1181   1.3679   1.4342
     1.5639   1.6216   2.2521   2.2736   2.2750   2.2758   2.2990   2.3515
     2.3526   2.3544   2.3574   2.5582   2.5656   2.7276   2.7286   2.7288
     2.7291   2.7933   3.1011   3.1213   3.1712   3.1760   3.1771   3.1844
     3.1860   3.1955   3.1995   3.2011   3.2032   3.2374   3.4488   3.4493
     3.4499   3.4503   3.7130   3.7149   4.0166   4.2520   4.2530   4.3557
     4.4149   4.4160   4.4759   4.7524   4.7550   4.7590   4.7600   4.8447
     4.8850   4.8871   4.9328   4.9642   4.9659   4.9703   4.9892   5.2789
     5.2810   5.3193   5.3354   5.3489   5.3647   5.4081   5.4245   5.4275
     5.4344   5.4345   5.4512   5.4596   5.4658   6.2839   6.5318   6.5477
     7.2497   7.5075   7.6472   7.7875   7.8494   7.8821   7.9731   8.0502
     8.0808   8.2722   8.2851   8.2930   8.4099   8.4516   8.4785   8.8400
     8.9706   9.0407   9.0773   9.0897   9.1443   9.2369   9.2466   9.3192
     9.3573   9.4359

          k = 0.0000 0.2500 0.0000 ( 36317 PWs)   bands (ev):

    -6.0912  -5.5355  -5.3023  -5.0111  -4.9800  -4.8021  -4.6324  -4.5618
    -4.4623  -4.4508  -4.3919  -4.2957  -4.2859  -4.0606  -3.9428  -3.8648
    -3.6644  -3.6623  -3.5506  -3.5099  -3.2560  -3.2297  -3.1310  -2.9441
    -2.6671  -2.2927  -2.1633  -2.0540  -1.9361  -1.7918  -1.7158  -1.7094
    -1.6895  -1.5924  -1.5889  -1.5738  -1.1936  -1.0892  -0.9808  -0.8185
    -0.7117  -0.6864  -0.5750  -0.4865  -0.4641  -0.1194  -0.0103   0.1452
     0.1506   0.2130   0.3601   0.5336   0.6194   1.1181   1.3679   1.4342
     1.5639   1.6216   2.2521   2.2738   2.2748   2.2758   2.2990   2.3514
     2.3526   2.3544   2.3574   2.5582   2.5656   2.7275   2.7286   2.7287
     2.7294   2.7933   3.1011   3.1213   3.1711   3.1758   3.1773   3.1844
     3.1860   3.1955   3.1994   3.2009   3.2035   3.2374   3.4487   3.4492
     3.4500   3.4505   3.7131   3.7148   4.0166   4.2523   4.2527   4.3557
     4.4148   4.4161   4.4759   4.7523   4.7550   4.7589   4.7601   4.8447
     4.8849   4.8871   4.9327   4.9640   4.9660   4.9705   4.9892   5.2791
     5.2809   5.3193   5.3355   5.3489   5.3646   5.4081   5.4246   5.4275
     5.4341   5.4348   5.4512   5.4597   5.4657   6.2839   6.5319   6.5477
     7.2497   7.5075   7.6472   7.7875   7.8495   7.8821   7.9731   8.0502
     8.0808   8.2722   8.2851   8.2930   8.4099   8.4516   8.4785   8.8400
     8.9706   9.0407   9.0772   9.0898   9.1443   9.2368   9.2466   9.3192
     9.3573   9.4358

          k =-0.5000 0.0000 0.0000 ( 36434 PWs)   bands (ev):

    -5.8824  -5.8815  -5.1131  -5.1120  -4.8569  -4.8561  -4.7812  -4.7806
    -4.3723  -4.3708  -4.3477  -4.3469  -4.1408  -4.1398  -3.7346  -3.7333
    -3.6512  -3.6506  -3.3987  -3.3976  -3.2806  -3.2798  -2.9185  -2.9170
    -2.7540  -2.7523  -2.5701  -2.5680  -1.8046  -1.8038  -1.7417  -1.7402
    -1.6543  -1.6525  -1.6058  -1.6048  -0.6931  -0.6920  -0.5367  -0.5352
    -0.4214  -0.4197  -0.3640  -0.3628  -0.3469  -0.3462  -0.1758  -0.1741
    -0.0446  -0.0430   0.0164   0.0177   0.4740   0.4754   1.7441   1.7452
     2.0010   2.0022   2.0247   2.0258   2.1848   2.1858   2.2004   2.2013
     2.2014   2.2021   2.2098   2.2108   2.2179   2.2184   3.0555   3.0557
     3.0563   3.0568   3.0570   3.0573   3.0575   3.0578   3.7647   3.7648
     3.8023   3.8033   3.8122   3.8128   3.8631   3.8636   3.9160   3.9168
     3.9178   3.9185   3.9528   3.9534   3.9540   3.9547   3.9551   3.9556
     3.9629   3.9632   3.9924   3.9930   4.0450   4.0463   4.0542   4.0552
     4.1006   4.1017   5.1832   5.1838   5.2033   5.2038   5.2085   5.2095
     5.2111   5.2123   5.2409   5.2410   5.3665   5.3680   5.3829   5.3839
     5.3967   5.3976   5.4095   5.4111   5.9192   5.9199   5.9249   5.9256
     7.3073   7.3085   8.2797   8.2810   8.6956   8.6964   8.7209   8.7224
     8.7421   8.7430   8.8162   8.8170   8.8409   8.8411   8.8840   8.8846
     8.9666   8.9675   9.0597   9.0603   9.0687   9.0691   9.2728   9.2735
     9.3012   9.3016

          k = 0.0000-0.5000 0.0000 ( 36434 PWs)   bands (ev):

    -5.8821  -5.8818  -5.1130  -5.1121  -4.8570  -4.8560  -4.7815  -4.7803
    -4.3719  -4.3712  -4.3476  -4.3469  -4.1408  -4.1398  -3.7342  -3.7337
    -3.6517  -3.6502  -3.3991  -3.3973  -3.2806  -3.2798  -2.9183  -2.9172
    -2.7538  -2.7525  -2.5692  -2.5690  -1.8048  -1.8036  -1.7417  -1.7402
    -1.6543  -1.6525  -1.6062  -1.6044  -0.6933  -0.6919  -0.5367  -0.5352
    -0.4214  -0.4197  -0.3640  -0.3628  -0.3469  -0.3462  -0.1756  -0.1744
    -0.0446  -0.0430   0.0164   0.0177   0.4745   0.4750   1.7443   1.7450
     2.0011   2.0022   2.0248   2.0258   2.1850   2.1856   2.2005   2.2011
     2.2015   2.2021   2.2099   2.2106   2.2178   2.2186   3.0553   3.0557
     3.0564   3.0566   3.0570   3.0571   3.0576   3.0581   3.7646   3.7650
     3.8024   3.8033   3.8122   3.8127   3.8631   3.8636   3.9168   3.9169
     3.9177   3.9178   3.9528   3.9538   3.9539   3.9542   3.9552   3.9556
     3.9626   3.9635   3.9924   3.9930   4.0452   4.0461   4.0543   4.0551
     4.1006   4.1017   5.1831   5.1839   5.2032   5.2038   5.2085   5.2094
     5.2112   5.2123   5.2406   5.2414   5.3668   5.3679   5.3830   5.3839
     5.3967   5.3976   5.4102   5.4103   5.9198   5.9199   5.9249   5.9250
     7.3078   7.3080   8.2801   8.2806   8.6957   8.6963   8.7209   8.7224
     8.7421   8.7430   8.8161   8.8171   8.8408   8.8412   8.8839   8.8846
     8.9667   8.9675   9.0597   9.0602   9.0686   9.0692   9.2727   9.2736
     9.3011   9.3016

          k = 0.0000-0.2500 0.2500 ( 36395 PWs)   bands (ev):

    -6.0249  -5.5306  -5.4724  -5.0083  -4.9536  -4.9207  -4.5917  -4.5492
    -4.4875  -4.4133  -4.3964  -4.3506  -4.2040  -4.0788  -4.0143  -3.7413
    -3.5775  -3.5046  -3.3952  -3.3120  -3.2407  -3.2151  -2.9164  -2.9112
    -2.7188  -2.6884  -2.4899  -2.4103  -2.3890  -2.0689  -2.0271  -1.9488
    -1.5405  -1.2705  -1.2399  -0.9230  -0.8680  -0.8493  -0.8189  -0.7322
    -0.7193  -0.6486  -0.5786  -0.4185  -0.2352  -0.2015  -0.1889  -0.1650
    -0.1625  -0.0992   0.5827   0.6807   0.9906   0.9943   1.0228   1.0353
     1.4175   1.4869   2.0819   2.1179   2.1976   2.2475   2.2496   2.2526
     2.3084   2.3677   2.5460   2.5501   2.7350   2.7357   2.7395   2.7414
     2.8109   2.8147   2.9359   3.1440   3.1459   3.4100   3.4113   3.4394
     3.4414   3.4770   3.4780   3.5732   3.5742   3.6094   3.6132   3.6509
     3.6528   3.6545   3.6565   3.7362   3.7649   3.9684   3.9691   4.2930
     4.2950   4.3970   4.4023   4.5557   4.5599   4.6060   4.6093   4.6558
     4.7989   4.8006   4.8021   4.8071   4.8081   4.8090   4.9783   4.9819
     5.1148   5.1414   5.2055   5.2098   5.3213   5.3510   5.4226   5.4240
     5.4263   5.4284   5.5736   5.6019   5.6071   5.9890   6.2401   6.7676
     7.4910   7.6771   7.7562   7.8944   7.9326   8.1331   8.1547   8.3235
     8.4854   8.4913   8.4972   8.5226   8.6935   8.7182   8.7473   8.9223
     9.0810   9.0948   9.1249   9.1548   9.1877   9.2238   9.2775   9.4030
     9.4249   9.5223

          k = 0.2500 0.0000-0.2500 ( 36395 PWs)   bands (ev):

    -6.0249  -5.5306  -5.4724  -5.0082  -4.9536  -4.9207  -4.5918  -4.5493
    -4.4875  -4.4134  -4.3964  -4.3505  -4.2039  -4.0788  -4.0144  -3.7414
    -3.5775  -3.5046  -3.3953  -3.3117  -3.2406  -3.2154  -2.9162  -2.9112
    -2.7188  -2.6885  -2.4897  -2.4100  -2.3894  -2.0694  -2.0274  -1.9485
    -1.5408  -1.2702  -1.2393  -0.9222  -0.8685  -0.8494  -0.8180  -0.7320
    -0.7193  -0.6488  -0.5785  -0.4191  -0.2358  -0.2014  -0.1896  -0.1648
    -0.1635  -0.0993   0.5833   0.6813   0.9914   0.9943   1.0225   1.0358
     1.4172   1.4866   2.0818   2.1172   2.1973   2.2477   2.2499   2.2531
     2.3080   2.3673   2.5458   2.5500   2.7355   2.7359   2.7398   2.7418
     2.8108   2.8146   2.9355   3.1443   3.1463   3.4096   3.4108   3.4399
     3.4412   3.4770   3.4779   3.5730   3.5741   3.6100   3.6138   3.6513
     3.6524   3.6546   3.6558   3.7363   3.7653   3.9681   3.9695   4.2934
     4.2953   4.3965   4.4015   4.5558   4.5589   4.6055   4.6086   4.6563
     4.7993   4.8008   4.8021   4.8069   4.8075   4.8095   4.9782   4.9818
     5.1147   5.1413   5.2056   5.2099   5.3221   5.3513   5.4221   5.4244
     5.4262   5.4284   5.5728   5.6014   5.6062   5.9898   6.2402   6.7687
     7.4913   7.6771   7.7566   7.8944   7.9324   8.1331   8.1546   8.3236
     8.4853   8.4917   8.4974   8.5231   8.6931   8.7183   8.7474   8.9221
     9.0808   9.0943   9.1253   9.1543   9.1877   9.2234   9.2775   9.4030
     9.4248   9.5225

          k =-0.2500 0.0000-0.2500 ( 36395 PWs)   bands (ev):

    -6.0249  -5.5306  -5.4724  -5.0083  -4.9536  -4.9206  -4.5917  -4.5491
    -4.4876  -4.4135  -4.3964  -4.3506  -4.2039  -4.0786  -4.0144  -3.7414
    -3.5779  -3.5044  -3.3948  -3.3121  -3.2407  -3.2151  -2.9162  -2.9112
    -2.7187  -2.6885  -2.4903  -2.4100  -2.3888  -2.0694  -2.0274  -1.9485
    -1.5409  -1.2701  -1.2392  -0.9232  -0.8685  -0.8485  -0.8189  -0.7320
    -0.7183  -0.6490  -0.5785  -0.4191  -0.2352  -0.2023  -0.1889  -0.1660
    -0.1622  -0.0999   0.5834   0.6814   0.9903   0.9949   1.0236   1.0352
     1.4171   1.4865   2.0818   2.1171   2.1977   2.2479   2.2500   2.2519
     2.3082   2.3675   2.5460   2.5499   2.7352   2.7365   2.7397   2.7417
     2.8109   2.8146   2.9355   3.1444   3.1462   3.4102   3.4102   3.4393
     3.4419   3.4770   3.4779   3.5735   3.5736   3.6101   3.6138   3.6506
     3.6526   3.6552   3.6556   3.7364   3.7652   3.9687   3.9690   4.2934
     4.2953   4.3964   4.4017   4.5547   4.5600   4.6056   4.6084   4.6564
     4.7996   4.8007   4.8020   4.8075   4.8081   4.8082   4.9782   4.9818
     5.1151   5.1414   5.2054   5.2099   5.3218   5.3515   5.4231   5.4234
     5.4265   5.4281   5.5727   5.6013   5.6062   5.9899   6.2402   6.7687
     7.4916   7.6772   7.7562   7.8943   7.9324   8.1332   8.1547   8.3238
     8.4857   8.4917   8.4976   8.5232   8.6930   8.7183   8.7474   8.9218
     9.0804   9.0943   9.1242   9.1542   9.1877   9.2245   9.2774   9.4029
     9.4248   9.5220

          k = 0.2500-0.2500 0.0000 ( 36395 PWs)   bands (ev):

    -6.0241  -5.4614  -5.4605  -5.2482  -5.0009  -4.7210  -4.7199  -4.4904
    -4.4896  -4.4285  -4.4278  -4.0449  -4.0438  -3.9295  -3.9286  -3.8925
    -3.8913  -3.6238  -3.6225  -3.5260  -3.0366  -3.0353  -2.8994  -2.8206
    -2.8195  -2.5998  -2.5987  -2.3184  -2.3171  -2.1225  -2.1208  -1.8082
    -1.6578  -1.1906  -1.1890  -0.9535  -0.9519  -0.7682  -0.7668  -0.6910
    -0.6894  -0.6470  -0.6456  -0.4442  -0.3901  -0.3451  -0.3444  -0.1180
     0.0743   0.0763   0.6474   0.6489   0.7307   0.7313   1.2112   1.2123
     1.5022   1.5041   2.0303   2.0803   2.1307   2.2495   2.2503   2.3050
     2.3055   2.4170   2.5484   2.5493   2.6735   2.6739   2.8026   2.8031
     2.8075   2.8082   2.9346   3.1457   3.1463   3.4077   3.4089   3.4414
     3.4421   3.4780   3.4783   3.5733   3.5743   3.6044   3.6055   3.6218
     3.6229   3.6827   3.6834   3.7342   3.7644   3.9685   3.9691   4.2926
     4.2930   4.4012   4.4027   4.5588   4.5725   4.6068   4.6086   4.6522
     4.7553   4.7962   4.7970   4.8143   4.8151   4.8467   4.9763   4.9766
     5.0855   5.1786   5.1795   5.2351   5.2596   5.3983   5.3989   5.4129
     5.4522   5.4532   5.5737   5.6047   5.6067   5.9894   6.2333   6.7745
     7.5534   7.6398   7.6411   7.9446   7.9458   8.1234   8.2071   8.2085
     8.2610   8.5081   8.6625   8.7115   8.7128   8.7491   8.7902   8.9152
     8.9156   9.0993   9.1008   9.1833   9.1846   9.3186   9.3192   9.4302
     9.4308   9.5207

          k =-0.2500-0.2500 0.0000 ( 36395 PWs)   bands (ev):

    -6.0193  -5.4796  -5.4788  -5.2311  -4.9201  -4.7820  -4.7812  -4.5079
    -4.3722  -4.3714  -4.3444  -4.2674  -4.1108  -3.9772  -3.9757  -3.7932
    -3.7795  -3.7785  -3.3510  -3.2319  -3.2308  -3.1929  -3.0629  -3.0108
    -2.9843  -2.4885  -2.4875  -2.2479  -2.0151  -2.0131  -1.9582  -1.8947
    -1.5761  -1.2885  -1.2832  -1.2817  -1.1784  -0.9615  -0.8136  -0.8117
    -0.5392  -0.5078  -0.4169  -0.3367  -0.3229  -0.3217  -0.3154  -0.0506
     0.1035   0.1050   0.2144   0.8234   0.8245   0.9874   1.1044   1.1052
     1.4788   1.4807   1.9704   2.0738   2.1141   2.2487   2.2495   2.2499
     2.3672   2.4892   2.5476   2.5485   2.7174   2.7177   2.7550   2.7553
     2.7949   2.8270   2.9361   3.1448   3.1453   3.4060   3.4072   3.4288
     3.4535   3.4548   3.5026   3.5596   3.5882   3.6114   3.6125   3.6246
     3.6255   3.6860   3.6880   3.7313   3.7637   3.9690   3.9696   4.2932
     4.2936   4.3583   4.4308   4.5529   4.5649   4.5741   4.6368   4.6570
     4.7209   4.7961   4.7972   4.8140   4.8146   4.8830   4.9756   4.9759
     5.1283   5.1314   5.2119   5.2311   5.2882   5.3600   5.4047   5.4065
     5.4475   5.4479   5.5715   5.6006   5.6024   5.9922   6.2237   6.7819
     7.5546   7.6019   7.8572   7.9303   7.9316   7.9939   8.2896   8.3405
     8.4032   8.5515   8.5556   8.5681   8.5881   8.6457   8.7259   8.7271
     9.1154   9.1172   9.1452   9.1470   9.2994   9.3002   9.3285   9.3589
     9.3596   9.3812

          k = 0.2500 0.0000 0.5000 ( 36408 PWs)   bands (ev):

    -5.8305  -5.8294  -5.2884  -5.2873  -4.7888  -4.7877  -4.7483  -4.7472
    -4.4828  -4.4819  -4.2754  -4.2743  -4.2406  -4.2395  -3.5194  -3.5177
    -3.5116  -3.5102  -3.2150  -3.2135  -3.1295  -3.1278  -2.9260  -2.9244
    -2.8494  -2.8477  -2.8242  -2.8231  -2.5060  -2.5045  -1.9820  -1.9809
    -1.4178  -1.4171  -0.8385  -0.8380  -0.6134  -0.6123  -0.5995  -0.5989
    -0.5821  -0.5806  -0.5508  -0.5493  -0.5001  -0.4986  -0.1260  -0.1252
     0.3360   0.3372   0.3535   0.3551   0.3759   0.3775   1.1336   1.1337
     1.6256   1.6272   1.6469   1.6485   2.0353   2.0359   2.4496   2.4502
     2.4632   2.4638   2.4867   2.4867   2.5714   2.5719   2.8852   2.8855
     2.9968   2.9969   3.3101   3.3101   3.3890   3.3893   3.5475   3.5478
     3.5497   3.5500   3.6502   3.6509   3.6876   3.6881   3.7959   3.7965
     3.8519   3.8527   4.0505   4.0517   4.0629   4.0644   4.1426   4.1432
     4.1914   4.1923   4.2021   4.2034   4.3636   4.3639   4.4183   4.4185
     4.4894   4.4905   4.4924   4.4935   4.6212   4.6213   4.9357   4.9376
     4.9491   4.9506   5.1424   5.1434   5.1437   5.1447   5.3856   5.3874
     5.3952   5.3965   5.6201   5.6205   6.0018   6.0023   6.3426   6.3431
     7.7111   7.7123   8.0642   8.0645   8.5199   8.5204   8.6201   8.6215
     8.7090   8.7093   8.9790   8.9792   9.0031   9.0036   9.0448   9.0455
     9.0653   9.0659   9.1072   9.1074   9.2606   9.2628   9.3005   9.3009
     9.3029   9.3045

          k =-0.5000-0.2500 0.0000 ( 36408 PWs)   bands (ev):

    -5.8190  -5.8086  -5.2966  -5.2549  -5.0720  -5.0355  -4.6693  -4.5375
    -4.3416  -4.3322  -4.2932  -4.1839  -3.9973  -3.9428  -3.7921  -3.7696
    -3.6818  -3.6460  -3.4369  -3.3794  -3.2254  -3.1988  -2.9701  -2.9647
    -2.8277  -2.6723  -2.5871  -2.4709  -2.4607  -2.4067  -1.9937  -1.8992
    -1.4837  -1.3989  -0.9274  -0.8739  -0.8521  -0.7794  -0.7508  -0.7073
    -0.6466  -0.6136  -0.3682  -0.3454  -0.3292  -0.2652  -0.2482  -0.0712
     0.1103   0.2033   0.3984   0.4377   0.4734   0.5491   1.1219   1.1960
     1.3717   1.4617   1.7600   1.8620   2.0330   2.0340   2.3818   2.4433
     2.4560   2.4866   2.4879   2.5225   2.5826   2.5847   2.8732   2.8812
     2.9958   2.9965   3.3094   3.3096   3.3856   3.3898   3.4688   3.5436
     3.5564   3.6243   3.6534   3.6543   3.6868   3.6873   3.7929   3.7957
     3.8539   3.8547   4.0635   4.0659   4.0672   4.0702   4.1386   4.1404
     4.1583   4.1785   4.2016   4.2120   4.3612   4.3627   4.4181   4.4194
     4.4447   4.4880   4.4959   4.5338   4.6142   4.6178   4.9211   4.9376
     4.9570   4.9754   5.1121   5.1221   5.1739   5.1834   5.3635   5.3685
     5.4101   5.4134   5.6128   5.6154   6.0020   6.0066   6.3402   6.3465
     7.7200   7.7329   8.0604   8.0999   8.4910   8.5410   8.5856   8.6021
     8.7217   8.7621   8.8583   8.8695   8.9404   8.9575   8.9714   8.9808
     9.0408   9.0908   9.1195   9.1819   9.2029   9.2053   9.2119   9.2325
     9.3302   9.3697

          k = 0.0000-0.5000 0.2500 ( 36408 PWs)   bands (ev):

    -5.8169  -5.8166  -5.3333  -5.3328  -4.8054  -4.8043  -4.7253  -4.7242
    -4.4624  -4.4616  -4.3202  -4.3191  -4.0273  -4.0269  -3.6882  -3.6877
    -3.4468  -3.4455  -3.3840  -3.3833  -3.2519  -3.2503  -2.9744  -2.9733
    -2.8102  -2.8089  -2.5754  -2.5750  -2.4425  -2.4418  -1.9621  -1.9610
    -1.4384  -1.4368  -0.8783  -0.8768  -0.7719  -0.7711  -0.6178  -0.6164
    -0.5711  -0.5701  -0.5420  -0.5406  -0.5173  -0.5157   0.0009   0.0022
     0.3514   0.3524   0.3748   0.3759   0.4194   0.4201   1.0596   1.0608
     1.6402   1.6412   1.6422   1.6431   2.0337   2.0341   2.4495   2.4507
     2.4617   2.4629   2.4871   2.4878   2.5849   2.5849   2.8784   2.8798
     2.9945   2.9947   3.3091   3.3097   3.3920   3.3923   3.5452   3.5464
     3.5500   3.5513   3.6495   3.6496   3.6899   3.6908   3.7929   3.7939
     3.8558   3.8564   4.0549   4.0558   4.0641   4.0648   4.1408   4.1417
     4.1865   4.1871   4.1960   4.1966   4.3621   4.3625   4.4240   4.4251
     4.4870   4.4881   4.4891   4.4901   4.6166   4.6182   4.9509   4.9518
     4.9559   4.9566   5.1444   5.1454   5.1458   5.1469   5.3830   5.3835
     5.3842   5.3846   5.6194   5.6197   6.0045   6.0062   6.3374   6.3393
     7.6999   7.7007   8.1004   8.1015   8.5623   8.5636   8.6649   8.6654
     8.6733   8.6735   8.8340   8.8349   8.8951   8.8957   9.0094   9.0102
     9.0377   9.0385   9.1035   9.1045   9.1083   9.1093   9.2414   9.2419
     9.2765   9.2773

          k = 0.2500-0.5000 0.0000 ( 36408 PWs)   bands (ev):

    -5.8190  -5.8086  -5.2966  -5.2549  -5.0720  -5.0355  -4.6693  -4.5375
    -4.3416  -4.3322  -4.2933  -4.1839  -3.9973  -3.9427  -3.7921  -3.7696
    -3.6818  -3.6460  -3.4369  -3.3794  -3.2254  -3.1988  -2.9701  -2.9647
    -2.8277  -2.6723  -2.5871  -2.4709  -2.4607  -2.4067  -1.9937  -1.8992
    -1.4837  -1.3989  -0.9274  -0.8739  -0.8521  -0.7794  -0.7508  -0.7072
    -0.6466  -0.6136  -0.3682  -0.3454  -0.3292  -0.2652  -0.2482  -0.0712
     0.1103   0.2033   0.3984   0.4377   0.4733   0.5491   1.1219   1.1960
     1.3717   1.4617   1.7600   1.8620   2.0331   2.0339   2.3818   2.4433
     2.4560   2.4866   2.4879   2.5225   2.5827   2.5846   2.8732   2.8812
     2.9958   2.9964   3.3094   3.3096   3.3856   3.3898   3.4688   3.5436
     3.5564   3.6243   3.6535   3.6542   3.6870   3.6872   3.7929   3.7957
     3.8542   3.8545   4.0635   4.0658   4.0674   4.0702   4.1387   4.1404
     4.1584   4.1785   4.2016   4.2119   4.3612   4.3626   4.4181   4.4194
     4.4447   4.4879   4.4960   4.5338   4.6142   4.6178   4.9211   4.9376
     4.9570   4.9754   5.1121   5.1221   5.1739   5.1835   5.3635   5.3685
     5.4101   5.4133   5.6128   5.6154   6.0020   6.0066   6.3402   6.3465
     7.7200   7.7328   8.0604   8.0999   8.4910   8.5410   8.5856   8.6022
     8.7217   8.7621   8.8583   8.8695   8.9404   8.9575   8.9714   8.9808
     9.0408   9.0896   9.1195   9.1819   9.2031   9.2053   9.2119   9.2326
     9.3305   9.3706

          k =-0.5000 0.0000 0.2500 ( 36408 PWs)   bands (ev):

    -5.8172  -5.8163  -5.3335  -5.3326  -4.8052  -4.8044  -4.7250  -4.7245
    -4.4624  -4.4616  -4.3200  -4.3193  -4.0277  -4.0265  -3.6886  -3.6874
    -3.4465  -3.4457  -3.3841  -3.3831  -3.2517  -3.2505  -2.9746  -2.9732
    -2.8103  -2.8087  -2.5757  -2.5748  -2.4431  -2.4412  -1.9621  -1.9610
    -1.4379  -1.4373  -0.8779  -0.8772  -0.7719  -0.7711  -0.6178  -0.6164
    -0.5712  -0.5700  -0.5421  -0.5406  -0.5173  -0.5157   0.0009   0.0022
     0.3512   0.3526   0.3747   0.3760   0.4191   0.4204   1.0600   1.0605
     1.6400   1.6413   1.6421   1.6434   2.0336   2.0341   2.4497   2.4506
     2.4618   2.4628   2.4875   2.4875   2.5846   2.5853   2.8790   2.8792
     2.9945   2.9947   3.3094   3.3094   3.3921   3.3923   3.5455   3.5463
     3.5502   3.5510   3.6493   3.6498   3.6902   3.6905   3.7931   3.7938
     3.8557   3.8565   4.0548   4.0559   4.0640   4.0649   4.1410   4.1416
     4.1862   4.1874   4.1959   4.1969   4.3621   4.3625   4.4244   4.4247
     4.4870   4.4883   4.4890   4.4900   4.6174   4.6175   4.9507   4.9519
     4.9558   4.9569   5.1445   5.1456   5.1457   5.1468   5.3823   5.3836
     5.3840   5.3853   5.6194   5.6197   6.0052   6.0056   6.3382   6.3386
     7.6996   7.7010   8.1006   8.1012   8.5628   8.5631   8.6650   8.6653
     8.6729   8.6738   8.8339   8.8351   8.8952   8.8956   9.0096   9.0100
     9.0376   9.0387   9.1038   9.1044   9.1086   9.1088   9.2415   9.2418
     9.2764   9.2774

          k =-0.5000 0.0000 0.5000 ( 36332 PWs)   bands (ev):

    -5.6265  -5.6257  -5.6256  -5.6240  -4.6601  -4.6597  -4.6594  -4.6582
    -4.5628  -4.5625  -4.5621  -4.5609  -3.5598  -3.5592  -3.5590  -3.5574
    -3.3686  -3.3666  -3.3666  -3.3650  -3.1583  -3.1574  -3.1573  -3.1552
    -2.9924  -2.9899  -2.9897  -2.9892  -2.2014  -2.2000  -2.1999  -2.1985
    -1.1718  -1.1706  -1.1705  -1.1698  -0.6915  -0.6911  -0.6909  -0.6886
    -0.6250  -0.6223  -0.6222  -0.6217   0.1583   0.1599   0.1599   0.1610
     0.2516   0.2532   0.2533   0.2546   0.9791   0.9797   0.9800   0.9820
     0.9865   0.9883   0.9889   0.9893   2.1266   2.1271   2.1271   2.1277
     2.9914   2.9921   2.9927   2.9931   2.9942   2.9947   2.9952   2.9960
     3.1062   3.1065   3.1070   3.1072   3.1117   3.1119   3.1125   3.1128
     3.7164   3.7173   3.7178   3.7182   3.7662   3.7664   3.7669   3.7671
     3.8054   3.8060   3.8062   3.8067   4.1124   4.1132   4.1133   4.1141
     4.4054   4.4061   4.4067   4.4078   4.4092   4.4103   4.4110   4.4115
     4.7262   4.7277   4.7283   4.7287   4.7352   4.7355   4.7361   4.7376
     5.0003   5.0007   5.0007   5.0010   5.0383   5.0390   5.0392   5.0394
     5.0438   5.0439   5.0440   5.0447   6.4990   6.4995   6.4996   6.5001
     7.9314   7.9320   7.9322   7.9326   8.7119   8.7127   8.7135   8.7138
     8.7762   8.7766   8.7769   8.7776   8.9448   8.9454   8.9459   8.9462
     8.9907   8.9911   8.9917   8.9919   9.4088   9.4096   9.4099   9.4114
     9.7340   9.7349

          k =-0.5000 0.5000 0.0000 ( 36332 PWs)   bands (ev):

    -5.6224  -5.6216  -5.5993  -5.5985  -4.9199  -4.9192  -4.8421  -4.8409
    -4.1835  -4.1824  -4.0982  -4.0967  -3.9064  -3.9057  -3.6784  -3.6776
    -3.4762  -3.4754  -3.4754  -3.4737  -3.2191  -3.2186  -3.2186  -3.2166
    -2.9315  -2.9300  -2.6051  -2.6034  -2.2729  -2.2712  -2.1667  -2.1647
    -1.1974  -1.1960  -1.1110  -1.1094  -0.9360  -0.9350  -0.5860  -0.5830
    -0.5827  -0.5826  -0.3898  -0.3876  -0.2567  -0.2554   0.2130   0.2156
     0.2160   0.2165   0.5668   0.5690   0.7264   0.7270   0.8408   0.8418
     1.0664   1.0673   1.1911   1.1921   2.1263   2.1269   2.1271   2.1277
     2.8957   2.8964   2.9906   2.9912   2.9921   2.9925   3.0849   3.0856
     3.0917   3.0931   3.1096   3.1106   3.1109   3.1112   3.1329   3.1334
     3.7483   3.7495   3.7524   3.7532   3.7619   3.7622   3.7662   3.7666
     3.7679   3.7680   3.7710   3.7712   4.1109   4.1122   4.1123   4.1135
     4.3992   4.4001   4.4131   4.4140   4.4143   4.4147   4.4301   4.4309
     4.6555   4.6566   4.6912   4.6923   4.7656   4.7662   4.8074   4.8087
     4.9742   4.9759   4.9775   4.9779   4.9938   4.9942   4.9966   4.9971
     5.1039   5.1041   5.1045   5.1052   6.4975   6.4997   6.5035   6.5058
     7.9343   7.9358   7.9708   7.9723   8.6746   8.6754   8.7079   8.7098
     8.7101   8.7107   8.8379   8.8408   8.8605   8.8623   8.8668   8.8687
     9.0251   9.0255   9.1244   9.1254   9.3614   9.3624   9.5580   9.5586
     9.5592   9.5603

          k =-0.2500-0.2500 0.2500 ( 36381 PWs)   bands (ev):

    -5.9532  -5.4602  -5.4179  -5.4170  -4.9705  -4.9698  -4.8632  -4.4523
    -4.3186  -4.3178  -4.3140  -4.1517  -4.1496  -3.9377  -3.9368  -3.6817
    -3.6804  -3.5841  -3.3099  -3.1657  -3.1172  -3.0720  -3.0445  -3.0434
    -3.0188  -2.6636  -2.5547  -2.5535  -2.4557  -2.4542  -2.2124  -2.0096
    -1.2654  -1.1886  -0.8703  -0.8693  -0.8221  -0.8033  -0.8007  -0.7419
    -0.5893  -0.5230  -0.5226  -0.4734  -0.4646  -0.3646  -0.3315  -0.0136
     0.3186   0.3199   0.3208   0.4068   0.4091   0.6572   1.2383   1.3058
     1.3071   1.6641   1.6650   1.6768   2.3272   2.3667   2.3674   2.3752
     2.3759   2.4278   2.4315   2.4322   2.4325   3.0214   3.0362   3.0504
     3.1150   3.1398   3.1404   3.1477   3.1485   3.1703   3.1777   3.1787
     3.1842   3.5415   3.5472   3.5480   3.5495   3.5507   3.5593   3.8160
     3.8301   3.8478   3.8527   3.8533   3.8542   4.1786   4.2278   4.2295
     4.2305   4.2400   4.2901   4.3509   4.3556   4.3567   4.6225   4.6607
     4.6613   4.6680   4.6686   4.7026   4.7048   4.7055   4.7065   4.9646
     5.0009   5.0593   5.1240   5.3455   5.3465   5.3529   5.3897   5.3901
     5.3940   5.5846   5.5920   5.9432   5.9446   5.9468   6.4990   6.5168
     7.4703   7.6500   7.8065   8.0756   8.0936   8.0955   8.1481   8.5958
     8.5976   8.6015   8.6247   8.6251   8.6797   8.9014   8.9076   8.9414
     8.9494   8.9503   9.1269   9.1747   9.1847   9.1860   9.2197   9.2636
     9.2708   9.2716

          k =-0.2500 0.2500-0.2500 ( 36381 PWs)   bands (ev):

    -5.9583  -5.4702  -5.3984  -5.3976  -4.9489  -4.9334  -4.9325  -4.6047
    -4.3782  -4.3775  -4.1405  -4.0430  -4.0421  -3.8584  -3.8572  -3.7274
    -3.7265  -3.6696  -3.6683  -3.3806  -2.9525  -2.8861  -2.8848  -2.7920
    -2.7909  -2.6508  -2.6365  -2.6354  -2.5134  -2.5123  -2.3927  -2.3916
    -0.9263  -0.9255  -0.8313  -0.8302  -0.7491  -0.7416  -0.7402  -0.6573
    -0.6559  -0.6138  -0.5714  -0.5699  -0.5650  -0.5373  -0.5358   0.2963
     0.3026   0.3036   0.3713   0.3727   0.3947   0.3957   1.2479   1.3204
     1.3226   1.6742   1.6996   1.7008   2.3746   2.3751   2.3762   2.3768
     2.3792   2.3801   2.4309   2.4317   2.4464   3.0333   3.0354   3.0362
     3.1380   3.1388   3.1398   3.1404   3.1456   3.1463   3.1530   3.1683
     3.1691   3.5482   3.5491   3.5503   3.5506   3.5508   3.5520   3.8303
     3.8309   3.8311   3.8500   3.8510   3.8705   4.2258   4.2268   4.2304
     4.2372   4.2393   4.2410   4.3546   4.3572   4.3577   4.6592   4.6600
     4.6633   4.6652   4.6681   4.6696   4.7002   4.7078   4.7083   4.9665
     5.0477   5.0602   5.0607   5.3437   5.3443   5.3470   5.3942   5.3958
     5.3997   5.5895   5.6023   5.9432   5.9441   5.9454   6.5093   6.5109
     7.6059   7.6145   7.6156   8.0442   8.0676   8.0921   8.0930   8.5747
     8.5754   8.5767   8.7794   8.8143   8.8155   8.8848   8.8853   8.8928
     8.9349   8.9359   9.0182   9.1205   9.2330   9.2334   9.2597   9.2616
     9.3325   9.3331

          k = 0.2500-0.2500-0.2500 ( 36381 PWs)   bands (ev):

    -5.9583  -5.4702  -5.3984  -5.3976  -4.9490  -4.9334  -4.9324  -4.6045
    -4.3782  -4.3774  -4.1404  -4.0430  -4.0423  -3.8584  -3.8572  -3.7275
    -3.7266  -3.6696  -3.6683  -3.3809  -2.9522  -2.8857  -2.8845  -2.7920
    -2.7909  -2.6511  -2.6365  -2.6354  -2.5133  -2.5121  -2.3932  -2.3919
    -0.9264  -0.9242  -0.8316  -0.8304  -0.7488  -0.7416  -0.7403  -0.6572
    -0.6558  -0.6127  -0.5715  -0.5711  -0.5663  -0.5372  -0.5357   0.2955
     0.3028   0.3038   0.3712   0.3726   0.3947   0.3971   1.2472   1.3204
     1.3218   1.6747   1.6994   1.7004   2.3748   2.3754   2.3760   2.3766
     2.3793   2.3800   2.4311   2.4318   2.4469   3.0330   3.0351   3.0356
     3.1386   3.1393   3.1399   3.1408   3.1458   3.1462   3.1539   3.1684
     3.1696   3.5484   3.5488   3.5502   3.5506   3.5510   3.5517   3.8305
     3.8311   3.8315   3.8500   3.8510   3.8713   4.2255   4.2264   4.2300
     4.2364   4.2389   4.2398   4.3545   4.3574   4.3584   4.6587   4.6592
     4.6631   4.6647   4.6677   4.6683   4.7001   4.7079   4.7089   4.9656
     5.0479   5.0607   5.0616   5.3440   5.3451   5.3472   5.3940   5.3945
     5.3980   5.5903   5.6020   5.9437   5.9451   5.9458   6.5101   6.5112
     7.6059   7.6150   7.6162   8.0441   8.0678   8.0920   8.0938   8.5745
     8.5760   8.5774   8.7794   8.8139   8.8151   8.8847   8.8859   8.8927
     8.9352   8.9361   9.0181   9.1210   9.2330   9.2570   9.2618   9.3316
     9.3333   9.3853

          k =-0.2500 0.2500 0.5000 ( 36310 PWs)   bands (ev):

    -5.7658  -5.7647  -5.2149  -5.2141  -5.2141  -5.2124  -4.8031  -4.8021
    -4.2368  -4.2361  -4.2361  -4.2345  -3.7701  -3.7695  -3.7693  -3.7675
    -3.4666  -3.4648  -3.1456  -3.1441  -3.1440  -3.1420  -3.1262  -3.1247
    -2.7186  -2.7181  -2.7179  -2.7163  -2.6089  -2.6066  -2.6065  -2.6057
    -0.8094  -0.8092  -0.8088  -0.8067  -0.7000  -0.6989  -0.6925  -0.6903
    -0.6902  -0.6895  -0.2672  -0.2654  -0.2648  -0.2644  -0.1338  -0.1314
    -0.1311  -0.1306   0.2580   0.2592   0.8882   0.8891   0.8892   0.8919
     0.9533   0.9549   2.3000   2.3005   2.3007   2.3019   2.4229   2.4246
     2.4253   2.4255   2.6155   2.6158   2.6163   2.6169   2.7028   2.7032
     2.7041   2.7045   3.2542   3.2549   3.3266   3.3281   3.5506   3.5513
     3.5521   3.5525   3.7605   3.7615   3.7622   3.7628   3.7703   3.7711
     3.7713   3.7717   3.9771   3.9777   3.9780   3.9800   4.0288   4.0302
     4.0840   4.0855   4.2137   4.2141   4.2146   4.2156   4.4861   4.4863
     4.4867   4.4876   4.8290   4.8293   4.8297   4.8318   4.8376   4.8393
     4.8395   4.8398   4.8401   4.8428   5.0733   5.0741   5.8111   5.8128
     5.8818   5.8831   5.8836   5.8846   5.9486   5.9506   6.1929   6.1944
     7.7744   7.7759   8.1499   8.1512   8.1517   8.1524   8.4939   8.4955
     8.4958   8.4967   8.6127   8.6132   8.7582   8.7603   8.8652   8.8655
     8.8657   8.8680   9.1235   9.1249   9.1253   9.1260   9.1464   9.1475
     9.2465   9.2472

          k =-0.5000-0.2500 0.2500 ( 36310 PWs)   bands (ev):

    -5.7547  -5.7435  -5.2813  -5.2598  -5.2382  -5.1939  -4.8278  -4.7445
    -4.3013  -4.1362  -4.0618  -3.9883  -3.9633  -3.8104  -3.7309  -3.6576
    -3.6016  -3.5509  -3.4998  -3.3059  -3.2985  -3.2209  -2.9565  -2.9459
    -2.7614  -2.7590  -2.6712  -2.6512  -2.5910  -2.5608  -2.4388  -2.4000
    -0.9418  -0.9117  -0.7975  -0.7858  -0.7793  -0.7643  -0.7248  -0.7188
    -0.7165  -0.6375  -0.3818  -0.2180  -0.1965  -0.1874  -0.1696  -0.1100
    -0.1092  -0.0850   0.3230   0.3941   0.8105   0.8266   0.8787   0.9343
     0.9479   0.9818   2.2423   2.2897   2.2942   2.2959   2.4040   2.4224
     2.4384   2.4768   2.6127   2.6163   2.6173   2.6177   2.7013   2.7025
     2.7062   2.7133   3.2387   3.2519   3.3384   3.3396   3.5465   3.5503
     3.5511   3.5635   3.7618   3.7628   3.7637   3.7696   3.7702   3.7710
     3.7714   3.7719   3.9800   3.9809   3.9819   3.9843   4.0295   4.0320
     4.0735   4.0777   4.2120   4.2127   4.2136   4.2146   4.4769   4.4819
     4.4855   4.4866   4.8018   4.8143   4.8204   4.8265   4.8346   4.8359
     4.8434   4.8464   4.8468   4.8743   5.0858   5.0941   5.8051   5.8077
     5.8842   5.8865   5.8874   5.8885   5.9457   5.9499   6.1865   6.1908
     7.7534   7.7959   8.1287   8.1350   8.1718   8.2215   8.5667   8.6130
     8.6249   8.6258   8.6380   8.6419   8.6614   8.6741   8.6829   8.6923
     8.6973   8.7763   9.0912   9.1293   9.1572   9.1901   9.2225   9.2597
     9.3423   9.3453

          k = 0.5000-0.2500-0.2500 ( 36310 PWs)   bands (ev):

    -5.7547  -5.7435  -5.2813  -5.2598  -5.2383  -5.1939  -4.8277  -4.7444
    -4.3012  -4.1361  -4.0619  -3.9881  -3.9632  -3.8107  -3.7308  -3.6579
    -3.6015  -3.5512  -3.4999  -3.3061  -3.2981  -3.2211  -2.9567  -2.9456
    -2.7610  -2.7586  -2.6714  -2.6508  -2.5912  -2.5610  -2.4385  -2.4003
    -0.9414  -0.9122  -0.7970  -0.7866  -0.7788  -0.7653  -0.7246  -0.7200
    -0.7169  -0.6385  -0.3813  -0.2174  -0.1954  -0.1864  -0.1692  -0.1097
    -0.1084  -0.0841   0.3228   0.3941   0.8098   0.8260   0.8779   0.9337
     0.9469   0.9810   2.2426   2.2900   2.2948   2.2963   2.4046   2.4230
     2.4390   2.4775   2.6123   2.6158   2.6168   2.6174   2.7017   2.7027
     2.7065   2.7137   3.2383   3.2515   3.3376   3.3387   3.5476   3.5516
     3.5519   3.5645   3.7616   3.7629   3.7635   3.7699   3.7701   3.7708
     3.7716   3.7721   3.9791   3.9809   3.9812   3.9836   4.0303   4.0328
     4.0730   4.0772   4.2121   4.2129   4.2139   4.2146   4.4764   4.4812
     4.4850   4.4862   4.8020   4.8132   4.8197   4.8259   4.8336   4.8352
     4.8428   4.8456   4.8476   4.8745   5.0853   5.0937   5.8067   5.8092
     5.8845   5.8865   5.8880   5.8886   5.9471   5.9513   6.1856   6.1899
     7.7544   7.7968   8.1286   8.1349   8.1718   8.2216   8.5668   8.6130
     8.6248   8.6260   8.6383   8.6419   8.6614   8.6753   8.6829   8.6923
     8.6974   8.7774   9.0914   9.1294   9.1574   9.1906   9.2227   9.2597
     9.3415   9.3445

          k =-0.2500-0.5000 0.2500 ( 36310 PWs)   bands (ev):

    -5.7546  -5.7435  -5.2813  -5.2597  -5.2383  -5.1939  -4.8277  -4.7445
    -4.3012  -4.1362  -4.0619  -3.9883  -3.9632  -3.8104  -3.7308  -3.6576
    -3.6016  -3.5512  -3.4999  -3.3058  -3.2985  -3.2209  -2.9567  -2.9456
    -2.7615  -2.7589  -2.6712  -2.6508  -2.5909  -2.5611  -2.4385  -2.4003
    -0.9414  -0.9124  -0.7969  -0.7866  -0.7794  -0.7652  -0.7248  -0.7186
    -0.7166  -0.6375  -0.3812  -0.2181  -0.1964  -0.1865  -0.1698  -0.1099
    -0.1087  -0.0843   0.3232   0.3938   0.8107   0.8257   0.8785   0.9339
     0.9470   0.9817   2.2427   2.2896   2.2943   2.2963   2.4048   2.4225
     2.4382   2.4775   2.6124   2.6158   2.6170   2.6179   2.7021   2.7024
     2.7060   2.7134   3.2388   3.2513   3.3382   3.3390   3.5473   3.5504
     3.5516   3.5642   3.7613   3.7628   3.7640   3.7698   3.7703   3.7707
     3.7716   3.7720   3.9799   3.9809   3.9815   3.9836   4.0301   4.0322
     4.0738   4.0769   4.2119   4.2128   4.2135   4.2149   4.4763   4.4819
     4.4850   4.4867   4.8016   4.8144   4.8197   4.8265   4.8348   4.8350
     4.8432   4.8457   4.8472   4.8743   5.0852   5.0941   5.8065   5.8079
     5.8840   5.8865   5.8875   5.8890   5.9467   5.9502   6.1867   6.1896
     7.7537   7.7963   8.1287   8.1355   8.1718   8.2211   8.5669   8.6129
     8.6246   8.6265   8.6381   8.6412   8.6613   8.6745   8.6831   8.6929
     8.6969   8.7768   9.0912   9.1298   9.1575   9.1899   9.2229   9.2597
     9.3420   9.3451

          k =-0.2500 0.5000-0.2500 ( 36310 PWs)   bands (ev):

    -5.7547  -5.7435  -5.2812  -5.2598  -5.2382  -5.1939  -4.8278  -4.7444
    -4.3013  -4.1361  -4.0618  -3.9881  -3.9633  -3.8106  -3.7309  -3.6579
    -3.6015  -3.5509  -3.4998  -3.3061  -3.2981  -3.2211  -2.9565  -2.9459
    -2.7611  -2.7585  -2.6715  -2.6512  -2.5913  -2.5607  -2.4389  -2.4000
    -0.9418  -0.9115  -0.7976  -0.7859  -0.7787  -0.7643  -0.7246  -0.7200
    -0.7170  -0.6385  -0.3818  -0.2173  -0.1955  -0.1874  -0.1689  -0.1099
    -0.1088  -0.0849   0.3226   0.3943   0.8097   0.8268   0.8781   0.9340
     0.9478   0.9811   2.2422   2.2901   2.2947   2.2960   2.4038   2.4229
     2.4392   2.4769   2.6127   2.6165   2.6167   2.6172   2.7015   2.7021
     2.7068   2.7135   3.2382   3.2520   3.3384   3.3387   3.5468   3.5513
     3.5515   3.5638   3.7620   3.7627   3.7635   3.7695   3.7701   3.7710
     3.7713   3.7723   3.9799   3.9807   3.9814   3.9839   4.0301   4.0323
     4.0728   4.0779   4.2124   4.2127   4.2139   4.2142   4.4770   4.4811
     4.4855   4.4861   4.8023   4.8134   4.8204   4.8257   4.8345   4.8354
     4.8431   4.8459   4.8470   4.8745   5.0859   5.0936   5.8062   5.8082
     5.8843   5.8861   5.8877   5.8890   5.9466   5.9503   6.1854   6.1910
     7.7541   7.7963   8.1287   8.1344   8.1718   8.2220   8.5666   8.6130
     8.6250   8.6254   8.6383   8.6425   8.6614   8.6750   8.6827   8.6917
     8.6978   8.7769   9.0914   9.1289   9.1571   9.1909   9.2223   9.2599
     9.3416   9.3446

          k =-0.5000 0.2500 0.5000 ( 36276 PWs)   bands (ev):

    -5.5670  -5.5659  -5.5532  -5.5520  -5.0707  -5.0697  -5.0162  -5.0151
    -4.1933  -4.1924  -4.0014  -4.0003  -3.6271  -3.6261  -3.4775  -3.4764
    -3.3431  -3.3414  -3.3222  -3.3205  -3.2308  -3.2296  -3.1807  -3.1791
    -3.0876  -3.0859  -2.9368  -2.9354  -2.6891  -2.6878  -2.4017  -2.4004
    -0.9567  -0.9556  -0.7514  -0.7501  -0.6319  -0.6306  -0.5502  -0.5489
    -0.5221  -0.5206  -0.4898  -0.4884   0.0353   0.0367   0.0373   0.0384
     0.1106   0.1115   0.1726   0.1734   0.3755   0.3772   0.4098   0.4115
     1.6527   1.6543   1.6735   1.6752   2.3335   2.3340   2.3345   2.3350
     2.9456   2.9469   2.9520   2.9525   2.9548   2.9559   2.9567   2.9572
     2.9660   2.9664   2.9897   2.9902   2.9910   2.9914   2.9941   2.9950
     3.2443   3.2456   3.2814   3.2828   3.7621   3.7632   3.7677   3.7691
     4.0260   4.0265   4.0271   4.0278   4.0279   4.0286   4.0291   4.0297
     4.1739   4.1745   4.1774   4.1779   4.4290   4.4306   4.4330   4.4343
     4.4345   4.4358   4.4381   4.4394   4.6489   4.6494   4.6594   4.6596
     5.4822   5.4838   5.4840   5.4853   5.4947   5.4953   5.4989   5.4993
     5.6084   5.6099   5.6124   5.6141   6.3439   6.3444   6.3464   6.3470
     7.9721   7.9729   8.0269   8.0271   8.3270   8.3287   8.3673   8.3688
     8.3711   8.3723   8.4472   8.4484   8.5419   8.5430   8.6458   8.6462
     8.7367   8.7372   8.7671   8.7680   8.8497   8.8509   8.8585   8.8600
     8.9037   8.9045

          k =-0.5000 0.5000 0.2500 ( 36276 PWs)   bands (ev):

    -5.5602  -5.5594  -5.5356  -5.5347  -5.1094  -5.1086  -5.0623  -5.0613
    -3.8769  -3.8762  -3.8566  -3.8557  -3.8000  -3.7987  -3.7164  -3.7156
    -3.4435  -3.4428  -3.4427  -3.4410  -3.2628  -3.2622  -3.2622  -3.2603
    -2.8919  -2.8904  -2.6637  -2.6620  -2.6367  -2.6355  -2.5703  -2.5689
    -0.8372  -0.8365  -0.8292  -0.8280  -0.7878  -0.7865  -0.4720  -0.4690
    -0.4688  -0.4686  -0.3577  -0.3565  -0.2527  -0.2505   0.0910   0.0937
     0.0940   0.0945   0.3023   0.3033   0.3222   0.3232   0.4185   0.4207
     1.6543   1.6552   1.6897   1.6906   2.3256   2.3265   2.3347   2.3357
     2.8687   2.8694   2.9543   2.9548   2.9555   2.9561   2.9756   2.9764
     2.9895   2.9900   2.9906   2.9911   3.0078   3.0091   3.0410   3.0418
     3.2390   3.2400   3.2477   3.2486   3.7656   3.7668   3.7699   3.7712
     4.0085   4.0096   4.0285   4.0289   4.0293   4.0302   4.0508   4.0512
     4.1720   4.1732   4.1734   4.1746   4.4124   4.4134   4.4352   4.4360
     4.4365   4.4367   4.4616   4.4623   4.6443   4.6452   4.6460   4.6468
     5.4749   5.4758   5.4792   5.4798   5.5006   5.5018   5.5020   5.5035
     5.6103   5.6115   5.6166   5.6178   6.3446   6.3467   6.3494   6.3517
     8.0138   8.0154   8.0550   8.0565   8.2292   8.2303   8.3543   8.3560
     8.3561   8.3568   8.5247   8.5261   8.5791   8.5805   8.5852   8.5870
     8.6961   8.6975   8.7632   8.7638   8.8692   8.8699   9.0691   9.0700
     9.0922   9.0926

     the Fermi energy is     7.0384 ev

!    total energy              =    -742.10022380 Ry
     estimated scf accuracy    <          6.0E-11 Ry
     smearing contrib. (-TS)   =      -0.00012217 Ry
     internal energy E=F+TS    =    -742.10010163 Ry

     The total energy is F=E-TS. E is the sum of the following terms:
     one-electron contribution =     176.86382359 Ry
     hartree contribution      =      33.68731060 Ry
     xc contribution           =    -412.27885885 Ry
     ewald contribution        =    -540.37237696 Ry

     convergence has been achieved in  15 iterations

     Forces acting on atoms (cartesian axes, Ry/au):

     atom    1 type  1   force =    -0.00401159    0.00020421    0.02110498
     atom    2 type  1   force =     0.00000616   -0.00000058    0.02513047
     atom    3 type  1   force =     0.00001228   -0.00000048    0.02513044
     atom    4 type  1   force =    -0.00000160    0.00000199    0.02500056
     atom    5 type  1   force =     0.00001290    0.00000049    0.02512156
     atom    6 type  1   force =    -0.00000107   -0.00000109    0.02511442
     atom    7 type  1   force =    -0.00012229   -0.00000117    0.02511436
     atom    8 type  1   force =     0.00000574   -0.00000036    0.02512234
     atom    9 type  1   force =     0.00002930    0.00002884    0.02501668
     atom   10 type  1   force =     0.00003152   -0.00002656    0.02503291
     atom   11 type  1   force =     0.00008981   -0.00008477    0.02497502
     atom   12 type  1   force =     0.00008310    0.00008264    0.02496276
     atom   13 type  1   force =     0.00001035   -0.00002417    0.02511966
     atom   14 type  1   force =     0.00000815    0.00002121    0.02511667
     atom   15 type  1   force =     0.00001227    0.00001712    0.02511268
     atom   16 type  1   force =     0.00001479   -0.00001974    0.02511509
     atom   17 type  2   force =     0.00011404    0.00005035   -0.02592239
     atom   18 type  2   force =    -0.00000090   -0.00000054   -0.02603330
     atom   19 type  2   force =    -0.00000732    0.00000528   -0.02604232
     atom   20 type  2   force =     0.00003063    0.00000025   -0.02600383
     atom   21 type  2   force =    -0.00000051    0.00000309   -0.02603081
     atom   22 type  2   force =     0.00012395   -0.00006443   -0.02591050
     atom   23 type  2   force =     0.00002909    0.00000141   -0.02600284
     atom   24 type  2   force =    -0.00000863   -0.00000527   -0.02604099
     atom   25 type  2   force =    -0.00009733    0.00002903   -0.02600228
     atom   26 type  2   force =     0.00000212   -0.00002217   -0.02602487
     atom   27 type  2   force =    -0.00014778   -0.00008539   -0.02595393
     atom   28 type  2   force =    -0.00000290    0.00001572   -0.02602130
     atom   29 type  2   force =    -0.00007621   -0.00003068   -0.02600358
     atom   30 type  2   force =     0.00000248    0.00002094   -0.02602445
     atom   31 type  2   force =    -0.00014408    0.00009450   -0.02593695
     atom   32 type  2   force =    -0.00000427   -0.00001674   -0.02601943
     atom   33 type  1   force =     0.00162763    0.00136626   -0.02348998
     atom   34 type  1   force =     0.00000452    0.00002273   -0.02512323
     atom   35 type  1   force =    -0.00000285    0.00001653   -0.02511697
     atom   36 type  1   force =     0.00001376    0.00001283   -0.02504669
     atom   37 type  1   force =    -0.00000638    0.00002394   -0.02510931
     atom   38 type  1   force =     0.00001184    0.00001888   -0.02510230
     atom   39 type  1   force =     0.00007242    0.00001422   -0.02509745
     atom   40 type  1   force =     0.00000207    0.00001553   -0.02511414
     atom   41 type  1   force =    -0.00000133   -0.00000226   -0.02506181
     atom   42 type  1   force =    -0.00002980    0.00000176   -0.02514449
     atom   43 type  1   force =    -0.00001019   -0.00000445   -0.02513805
     atom   44 type  1   force =     0.00027992    0.00001228   -0.02484459
     atom   45 type  1   force =    -0.00001328    0.00000007   -0.02512951
     atom   46 type  1   force =     0.00005090    0.00000218   -0.02511897
     atom   47 type  1   force =     0.00000003   -0.00000238   -0.02511427
     atom   48 type  1   force =    -0.00002475    0.00000557   -0.02512768
     atom   49 type  2   force =     0.00001204   -0.00000934    0.02604604
     atom   50 type  2   force =    -0.00000629   -0.00002212    0.02603959
     atom   51 type  2   force =     0.00000131   -0.00001497    0.02603491
     atom   52 type  2   force =     0.00006298   -0.00001434    0.02604775
     atom   53 type  2   force =     0.00000777   -0.00001960    0.02602546
     atom   54 type  2   force =     0.00177434   -0.00157343    0.02782646
     atom   55 type  2   force =     0.00001244   -0.00001302    0.02609721
     atom   56 type  2   force =    -0.00000492   -0.00002052    0.02603228
     atom   57 type  2   force =     0.00005370   -0.00000239    0.02603059
     atom   58 type  2   force =    -0.00001352   -0.00000017    0.02601947
     atom   59 type  2   force =    -0.00002546   -0.00000299    0.02602171
     atom   60 type  2   force =    -0.00000010    0.00000022    0.02603252
     atom   61 type  2   force =    -0.00002675    0.00000030    0.02600295
     atom   62 type  2   force =    -0.00000094    0.00000032    0.02608322
     atom   63 type  2   force =     0.00019985   -0.00000657    0.02621288
     atom   64 type  2   force =    -0.00001321    0.00000203    0.02600955

     Total force =     0.204133     Total SCF correction =     0.000012

     Writing all to output data dir ./results1/phonon_fc.save/ :
     XML data file, charge density, pseudopotentials, collected wavefunctions

     init_run     :    136.85s CPU    138.09s WALL (       1 calls)
     electrons    :   4342.69s CPU   4377.14s WALL (       1 calls)
     forces       :     93.27s CPU     94.00s WALL (       1 calls)

     Called by init_run:
     wfcinit      :    134.92s CPU    136.09s WALL (       1 calls)
     potinit      :      0.30s CPU      0.31s WALL (       1 calls)
     hinit0       :      0.57s CPU      0.59s WALL (       1 calls)

     Called by electrons:
     c_bands      :   3906.23s CPU   3935.58s WALL (      16 calls)
     sum_band     :    423.20s CPU    426.84s WALL (      16 calls)
     v_of_rho     :      0.99s CPU      1.06s WALL (      16 calls)
     newd         :     12.85s CPU     13.51s WALL (      16 calls)
     mix_rho      :      0.13s CPU      0.15s WALL (      16 calls)

     Called by c_bands:
     init_us_2    :     24.33s CPU     24.54s WALL (    1224 calls)
     cegterg      :   3871.75s CPU   3900.39s WALL (     576 calls)

     Called by *egterg:
     cdiaghg      :    220.76s CPU    221.62s WALL (    3096 calls)
     h_psi        :   2092.55s CPU   2109.09s WALL (    3168 calls)
     s_psi        :    921.55s CPU    928.82s WALL (    3168 calls)
     g_psi        :      1.30s CPU      1.33s WALL (    2556 calls)

     Called by h_psi:
     h_psi:calbec :    946.80s CPU    953.47s WALL (    3168 calls)
     vloc_psi     :    219.69s CPU    222.14s WALL (    3168 calls)
     add_vuspsi   :    922.52s CPU    929.88s WALL (    3168 calls)

     General routines
     calbec       :   1384.06s CPU   1393.80s WALL (    3888 calls)
     fft          :      1.06s CPU      1.08s WALL (     218 calls)
     ffts         :      0.25s CPU      0.25s WALL (      32 calls)
     fftw         :    220.32s CPU    222.70s WALL (  568294 calls)
     interpolate  :      0.29s CPU      0.29s WALL (      16 calls)

     Parallel routines

     PWSCF        :      1h16m CPU      1h17m WALL


   This run was terminated on:  17:17:10  25Mar2026            

=------------------------------------------------------------------------------=
   JOB DONE.
=------------------------------------------------------------------------------=
