
     Program PWSCF v.7.3.1 starts on 25Mar2026 at 16: 7:34 

     This program is part of the open-source Quantum ESPRESSO suite
     for quantum simulation of materials; please cite
         "P. Giannozzi et al., J. Phys.:Condens. Matter 21 395502 (2009);
         "P. Giannozzi et al., J. Phys.:Condens. Matter 29 465901 (2017);
         "P. Giannozzi et al., J. Chem. Phys. 152 154105 (2020);
          URL http://www.quantum-espresso.org", 
     in publications or presentations arising from this work. More details at
     http://www.quantum-espresso.org/quote

     Parallel version (MPI), running on     9 processors

     MPI processes distributed on     1 nodes
     15954 MiB available memory on the printing compute node when the environment starts

     Waiting for input...
     Reading input from standard input

     Current dimensions of program PWSCF are:
     Max number of different atomic species (ntypx) = 10
     Max number of k-points (npk) =  40000
     Max angular momentum in pseudopotentials (lmaxx) =  4

     R & G space division:  proc/nbgrp/npool/nimage =       9
     Subspace diagonalization in iterative solution of the eigenvalue problem:
     one sub-group per band group will be used
     custom distributed-memory algorithm (size of sub-group:  2*  2 procs)


     Parallelization info
     --------------------
     sticks:   dense  smooth     PW     G-vecs:    dense   smooth      PW
     Min        1178     588    160                91396    32308    4572
     Max        1179     589    162                91401    32313    4573
     Sum       10605    5297   1449               822577   290795   41155

     Using Slab Decomposition



     bravais-lattice index     =            0
     lattice parameter (alat)  =      20.4158  a.u.
     unit-cell volume          =    8509.4617 (a.u.)^3
     number of atoms/cell      =           64
     number of atomic types    =            2
     number of electrons       =       256.00
     number of Kohn-Sham states=          154
     kinetic-energy cutoff     =      40.0000  Ry
     charge density cutoff     =     320.0000  Ry
     scf convergence threshold =      1.0E-10
     mixing beta               =       0.7000
     number of iterations used =            8  plain     mixing
     Exchange-correlation= PBE
                           (   1   4   3   4   0   0   0)

     celldm(1)=  20.415845  celldm(2)=   0.000000  celldm(3)=   0.000000
     celldm(4)=   0.000000  celldm(5)=   0.000000  celldm(6)=   0.000000

     crystal axes: (cart. coord. in units of alat)
               a(1) = (   1.000000   0.000000   0.000000 )  
               a(2) = (   0.000000   1.000000   0.000000 )  
               a(3) = (   0.000000   0.000000   1.000000 )  

     reciprocal axes: (cart. coord. in units 2 pi/alat)
               b(1) = (  1.000000  0.000000  0.000000 )  
               b(2) = (  0.000000  1.000000  0.000000 )  
               b(3) = (  0.000000  0.000000  1.000000 )  


     PseudoPot. # 1 for Si read from file:
     ./pseudo/Si.pbe-n-rrkjus_psl.1.0.0.UPF
     MD5 check sum: fa25574f73a70a4139f2adfbefec430c
     Pseudo is Ultrasoft + core correction, Zval =  4.0
     Generated using &quot;atomic&quot; code by A. Dal Corso  v.6.3
     Using radial grid of 1141 points,  6 beta functions with: 
                l(1) =   0
                l(2) =   0
                l(3) =   1
                l(4) =   1
                l(5) =   2
                l(6) =   2
     Q(r) pseudized with 0 coefficients 


     PseudoPot. # 2 for Ge read from file:
     ./pseudo/Ge.pbe-n-rrkjus_psl.1.0.0.UPF
     MD5 check sum: a23a7f3f7456476e534e54484b27d8e8
     Pseudo is Ultrasoft + core correction, Zval =  4.0
     Generated using &quot;atomic&quot; code by A. Dal Corso  v.6.3
     Using radial grid of 1207 points,  4 beta functions with: 
                l(1) =   0
                l(2) =   0
                l(3) =   1
                l(4) =   1
     Q(r) pseudized with 0 coefficients 


     atomic species   valence    mass     pseudopotential
     Si                4.00    28.08500     Si( 1.00)
     Ge                4.00    72.63000     Ge( 1.00)

     No symmetry found



   Cartesian axes

     site n.     atom                  positions (alat units)
         1        Si     tau(   1) = (  -0.0006545   0.0000000  -0.0006545  )
         2        Si     tau(   2) = (   0.5000000   0.0000000   0.0000000  )
         3        Si     tau(   3) = (   0.0000000   0.5000000   0.0000000  )
         4        Si     tau(   4) = (   0.5000000   0.5000000   0.0000000  )
         5        Si     tau(   5) = (   0.0000000   0.0000000   0.5000000  )
         6        Si     tau(   6) = (   0.5000000   0.0000000   0.5000000  )
         7        Si     tau(   7) = (   0.0000000   0.5000000   0.5000000  )
         8        Si     tau(   8) = (   0.5000000   0.5000000   0.5000000  )
         9        Si     tau(   9) = (   0.2500000   0.2500000   0.0000000  )
        10        Si     tau(  10) = (   0.7500000   0.2500000   0.0000000  )
        11        Si     tau(  11) = (   0.2500000   0.7500000   0.0000000  )
        12        Si     tau(  12) = (   0.7500000   0.7500000   0.0000000  )
        13        Si     tau(  13) = (   0.2500000   0.2500000   0.5000000  )
        14        Si     tau(  14) = (   0.7500000   0.2500000   0.5000000  )
        15        Si     tau(  15) = (   0.2500000   0.7500000   0.5000000  )
        16        Si     tau(  16) = (   0.7500000   0.7500000   0.5000000  )
        17        Ge     tau(  17) = (   0.2500000   0.0000000   0.2500000  )
        18        Ge     tau(  18) = (   0.7500000   0.0000000   0.2500000  )
        19        Ge     tau(  19) = (   0.2500000   0.5000000   0.2500000  )
        20        Ge     tau(  20) = (   0.7500000   0.5000000   0.2500000  )
        21        Ge     tau(  21) = (   0.2500000   0.0000000   0.7500000  )
        22        Ge     tau(  22) = (   0.7500000   0.0000000   0.7500000  )
        23        Ge     tau(  23) = (   0.2500000   0.5000000   0.7500000  )
        24        Ge     tau(  24) = (   0.7500000   0.5000000   0.7500000  )
        25        Ge     tau(  25) = (   0.0000000   0.2500000   0.2500000  )
        26        Ge     tau(  26) = (   0.5000000   0.2500000   0.2500000  )
        27        Ge     tau(  27) = (   0.0000000   0.7500000   0.2500000  )
        28        Ge     tau(  28) = (   0.5000000   0.7500000   0.2500000  )
        29        Ge     tau(  29) = (   0.0000000   0.2500000   0.7500000  )
        30        Ge     tau(  30) = (   0.5000000   0.2500000   0.7500000  )
        31        Ge     tau(  31) = (   0.0000000   0.7500000   0.7500000  )
        32        Ge     tau(  32) = (   0.5000000   0.7500000   0.7500000  )
        33        Si     tau(  33) = (   0.1250000   0.1250000   0.1250000  )
        34        Si     tau(  34) = (   0.6250000   0.1250000   0.1250000  )
        35        Si     tau(  35) = (   0.1250000   0.6250000   0.1250000  )
        36        Si     tau(  36) = (   0.6250000   0.6250000   0.1250000  )
        37        Si     tau(  37) = (   0.1250000   0.1250000   0.6250000  )
        38        Si     tau(  38) = (   0.6250000   0.1250000   0.6250000  )
        39        Si     tau(  39) = (   0.1250000   0.6250000   0.6250000  )
        40        Si     tau(  40) = (   0.6250000   0.6250000   0.6250000  )
        41        Si     tau(  41) = (   0.3750000   0.3750000   0.1250000  )
        42        Si     tau(  42) = (   0.8750000   0.3750000   0.1250000  )
        43        Si     tau(  43) = (   0.3750000   0.8750000   0.1250000  )
        44        Si     tau(  44) = (   0.8750000   0.8750000   0.1250000  )
        45        Si     tau(  45) = (   0.3750000   0.3750000   0.6250000  )
        46        Si     tau(  46) = (   0.8750000   0.3750000   0.6250000  )
        47        Si     tau(  47) = (   0.3750000   0.8750000   0.6250000  )
        48        Si     tau(  48) = (   0.8750000   0.8750000   0.6250000  )
        49        Ge     tau(  49) = (   0.3750000   0.1250000   0.3750000  )
        50        Ge     tau(  50) = (   0.8750000   0.1250000   0.3750000  )
        51        Ge     tau(  51) = (   0.3750000   0.6250000   0.3750000  )
        52        Ge     tau(  52) = (   0.8750000   0.6250000   0.3750000  )
        53        Ge     tau(  53) = (   0.3750000   0.1250000   0.8750000  )
        54        Ge     tau(  54) = (   0.8750000   0.1250000   0.8750000  )
        55        Ge     tau(  55) = (   0.3750000   0.6250000   0.8750000  )
        56        Ge     tau(  56) = (   0.8750000   0.6250000   0.8750000  )
        57        Ge     tau(  57) = (   0.1250000   0.3750000   0.3750000  )
        58        Ge     tau(  58) = (   0.6250000   0.3750000   0.3750000  )
        59        Ge     tau(  59) = (   0.1250000   0.8750000   0.3750000  )
        60        Ge     tau(  60) = (   0.6250000   0.8750000   0.3750000  )
        61        Ge     tau(  61) = (   0.1250000   0.3750000   0.8750000  )
        62        Ge     tau(  62) = (   0.6250000   0.3750000   0.8750000  )
        63        Ge     tau(  63) = (   0.1250000   0.8750000   0.8750000  )
        64        Ge     tau(  64) = (   0.6250000   0.8750000   0.8750000  )

     number of k points=    36  Gaussian smearing, width (Ry)=  0.0100
                       cart. coord. in units 2pi/alat
        k(    1) = (   0.0000000   0.0000000   0.0000000), wk =   0.0312500
        k(    2) = (   0.0000000   0.0000000   0.2500000), wk =   0.0625000
        k(    3) = (   0.0000000   0.0000000  -0.5000000), wk =   0.0312500
        k(    4) = (   0.0000000   0.2500000   0.2500000), wk =   0.0625000
        k(    5) = (   0.0000000   0.2500000  -0.5000000), wk =   0.0625000
        k(    6) = (   0.0000000  -0.5000000  -0.5000000), wk =   0.0312500
        k(    7) = (   0.2500000   0.2500000   0.2500000), wk =   0.0625000
        k(    8) = (   0.2500000   0.2500000  -0.5000000), wk =   0.0625000
        k(    9) = (   0.2500000  -0.5000000  -0.5000000), wk =   0.0625000
        k(   10) = (  -0.5000000  -0.5000000  -0.5000000), wk =   0.0312500
        k(   11) = (   0.2500000   0.0000000   0.0000000), wk =   0.0625000
        k(   12) = (   0.0000000   0.2500000   0.0000000), wk =   0.0625000
        k(   13) = (  -0.5000000   0.0000000   0.0000000), wk =   0.0312500
        k(   14) = (   0.0000000  -0.5000000   0.0000000), wk =   0.0312500
        k(   15) = (   0.0000000  -0.2500000   0.2500000), wk =   0.0625000
        k(   16) = (   0.2500000   0.0000000  -0.2500000), wk =   0.0625000
        k(   17) = (  -0.2500000   0.0000000  -0.2500000), wk =   0.0625000
        k(   18) = (   0.2500000  -0.2500000   0.0000000), wk =   0.0625000
        k(   19) = (  -0.2500000  -0.2500000   0.0000000), wk =   0.0625000
        k(   20) = (   0.2500000   0.0000000   0.5000000), wk =   0.0625000
        k(   21) = (  -0.5000000  -0.2500000   0.0000000), wk =   0.0625000
        k(   22) = (   0.0000000  -0.5000000   0.2500000), wk =   0.0625000
        k(   23) = (   0.2500000  -0.5000000   0.0000000), wk =   0.0625000
        k(   24) = (  -0.5000000   0.0000000   0.2500000), wk =   0.0625000
        k(   25) = (  -0.5000000   0.0000000   0.5000000), wk =   0.0312500
        k(   26) = (  -0.5000000   0.5000000   0.0000000), wk =   0.0312500
        k(   27) = (  -0.2500000  -0.2500000   0.2500000), wk =   0.0625000
        k(   28) = (  -0.2500000   0.2500000  -0.2500000), wk =   0.0625000
        k(   29) = (   0.2500000  -0.2500000  -0.2500000), wk =   0.0625000
        k(   30) = (  -0.2500000   0.2500000   0.5000000), wk =   0.0625000
        k(   31) = (  -0.5000000  -0.2500000   0.2500000), wk =   0.0625000
        k(   32) = (   0.5000000  -0.2500000  -0.2500000), wk =   0.0625000
        k(   33) = (  -0.2500000  -0.5000000   0.2500000), wk =   0.0625000
        k(   34) = (  -0.2500000   0.5000000  -0.2500000), wk =   0.0625000
        k(   35) = (  -0.5000000   0.2500000   0.5000000), wk =   0.0625000
        k(   36) = (  -0.5000000   0.5000000   0.2500000), wk =   0.0625000

     Dense  grid:   822577 G-vectors     FFT dimensions: ( 120, 120, 120)

     Smooth grid:   290795 G-vectors     FFT dimensions: (  90,  90,  90)

     Estimated max dynamical RAM per process >     850.83 MB

     Estimated total dynamical RAM >       7.48 GB

     Initial potential from superposition of free atoms

     starting charge     255.9576, renormalised to     256.0000
     Starting wfcs are  256 randomized atomic wfcs

     total cpu time spent up to now is      448.9 secs

     per-process dynamical memory:   507.7 Mb

     Self-consistent Calculation

     iteration #  1     ecut=    40.00 Ry     beta= 0.70
     Davidson diagonalization with overlap
     ethr =  1.00E-02,  avg # of iterations =  3.2

     Threshold (ethr) on eigenvalues was too large:
     Diagonalizing with lowered threshold

     Davidson diagonalization with overlap
     ethr =  5.56E-04,  avg # of iterations =  2.9

     total cpu time spent up to now is     2188.2 secs

     total energy              =    -742.01634944 Ry
     estimated scf accuracy    <       1.52717314 Ry

     iteration #  2     ecut=    40.00 Ry     beta= 0.70
     Davidson diagonalization with overlap
     ethr =  5.97E-04,  avg # of iterations =  1.4

     total cpu time spent up to now is     2862.0 secs

     total energy              =    -742.08477068 Ry
     estimated scf accuracy    <       0.07728660 Ry

     iteration #  3     ecut=    40.00 Ry     beta= 0.70
     Davidson diagonalization with overlap
     c_bands:  2 eigenvalues not converged
     c_bands:  2 eigenvalues not converged
     c_bands:  1 eigenvalues not converged
     c_bands:  4 eigenvalues not converged
     c_bands:  2 eigenvalues not converged
     c_bands:  1 eigenvalues not converged
     ethr =  3.02E-05,  avg # of iterations = 14.7

     total cpu time spent up to now is     4085.5 secs

     total energy              =    -742.09685984 Ry
     estimated scf accuracy    <       0.00748859 Ry

     iteration #  4     ecut=    40.00 Ry     beta= 0.70
     Davidson diagonalization with overlap
     c_bands:  3 eigenvalues not converged
     c_bands:  2 eigenvalues not converged
     c_bands:  2 eigenvalues not converged
     c_bands:  1 eigenvalues not converged
     c_bands:  2 eigenvalues not converged
     c_bands:  1 eigenvalues not converged
     c_bands:  4 eigenvalues not converged
     c_bands:  4 eigenvalues not converged
     c_bands:  3 eigenvalues not converged
     ethr =  2.93E-06,  avg # of iterations = 13.4

     total cpu time spent up to now is     5283.8 secs

     total energy              =    -742.09921500 Ry
     estimated scf accuracy    <       0.00137526 Ry

     iteration #  5     ecut=    40.00 Ry     beta= 0.70
     Davidson diagonalization with overlap
     c_bands:  2 eigenvalues not converged
     c_bands:  4 eigenvalues not converged
     c_bands:  2 eigenvalues not converged
     ethr =  5.37E-07,  avg # of iterations =  6.2

     total cpu time spent up to now is     6225.6 secs

     total energy              =    -742.09950742 Ry
     estimated scf accuracy    <       0.00020361 Ry

     iteration #  6     ecut=    40.00 Ry     beta= 0.70
     Davidson diagonalization with overlap
     c_bands:  1 eigenvalues not converged
     c_bands:  3 eigenvalues not converged
     ethr =  7.95E-08,  avg # of iterations =  4.5

     total cpu time spent up to now is     7077.9 secs

     total energy              =    -742.09954473 Ry
     estimated scf accuracy    <       0.00003223 Ry

     iteration #  7     ecut=    40.00 Ry     beta= 0.70
     Davidson diagonalization with overlap
     c_bands:  2 eigenvalues not converged
     ethr =  1.26E-08,  avg # of iterations =  3.5

     total cpu time spent up to now is     7966.0 secs

     total energy              =    -742.09955067 Ry
     estimated scf accuracy    <       0.00000659 Ry

     iteration #  8     ecut=    40.00 Ry     beta= 0.70
     Davidson diagonalization with overlap
     ethr =  2.57E-09,  avg # of iterations =  3.6

     total cpu time spent up to now is     8850.9 secs

     total energy              =    -742.09955223 Ry
     estimated scf accuracy    <       0.00000126 Ry

     iteration #  9     ecut=    40.00 Ry     beta= 0.70
     Davidson diagonalization with overlap
     ethr =  4.91E-10,  avg # of iterations =  3.7

     total cpu time spent up to now is     9736.1 secs

     total energy              =    -742.09955240 Ry
     estimated scf accuracy    <       0.00000068 Ry

     iteration # 10     ecut=    40.00 Ry     beta= 0.70
     Davidson diagonalization with overlap
     ethr =  2.66E-10,  avg # of iterations =  2.0

     total cpu time spent up to now is    10551.9 secs

     total energy              =    -742.09955253 Ry
     estimated scf accuracy    <       0.00000003 Ry

     iteration # 11     ecut=    40.00 Ry     beta= 0.70
     Davidson diagonalization with overlap
     ethr =  1.11E-11,  avg # of iterations =  4.0

     total cpu time spent up to now is    11681.8 secs

     total energy              =    -742.09955254 Ry
     estimated scf accuracy    <       0.00000002 Ry

     iteration # 12     ecut=    40.00 Ry     beta= 0.70
     Davidson diagonalization with overlap
     ethr =  9.57E-12,  avg # of iterations =  2.0

     total cpu time spent up to now is    12504.7 secs

     total energy              =    -742.09955254 Ry
     estimated scf accuracy    <          5.0E-09 Ry

     iteration # 13     ecut=    40.00 Ry     beta= 0.70
     Davidson diagonalization with overlap
     ethr =  1.95E-12,  avg # of iterations =  2.5

     total cpu time spent up to now is    13355.3 secs

     total energy              =    -742.09955255 Ry
     estimated scf accuracy    <          1.1E-09 Ry

     iteration # 14     ecut=    40.00 Ry     beta= 0.70
     Davidson diagonalization with overlap
     ethr =  4.43E-13,  avg # of iterations =  4.0

     total cpu time spent up to now is    14228.6 secs

     total energy              =    -742.09955255 Ry
     estimated scf accuracy    <          1.7E-10 Ry

     iteration # 15     ecut=    40.00 Ry     beta= 0.70
     Davidson diagonalization with overlap
     ethr =  1.00E-13,  avg # of iterations =  2.0

     total cpu time spent up to now is    15042.7 secs

     End of self-consistent calculation

          k = 0.0000 0.0000 0.0000 ( 36377 PWs)   bands (ev):

    -6.1615  -5.3671  -5.0576  -5.0562  -5.0562  -5.0555  -4.6249  -4.4925
    -4.3832  -4.3814  -4.3812  -4.3811  -4.2578  -4.0344  -4.0332  -3.7630
    -3.7617  -3.6409  -3.6400  -3.6399  -3.6378  -3.4914  -3.1470  -2.2478
    -2.2470  -2.1091  -2.1082  -1.8138  -1.7299  -1.6778  -1.6751  -1.6750
    -1.6746  -1.5608  -1.5602  -1.5601  -1.5570  -1.3422  -1.3405  -1.1631
    -1.1613  -1.0076  -0.7557  -0.7541  -0.6185   0.3205   0.4853   0.4862
     0.4864   0.4878   0.7409   0.7424   0.9370   0.9381   0.9384   0.9399
     1.0683   2.5051   2.5760   2.5767   2.6024   2.6034   2.6040   2.6043
     2.6049   2.6052   2.6058   2.6067   2.6337   2.6339   2.6845   2.6856
     2.6864   2.6870   2.6878   2.6960   2.6970   2.7153   2.7155   2.7155
     2.7159   2.7170   2.8107   2.8121   2.8121   2.8138   3.0726   3.6365
     3.6373   3.6432   3.6461   3.6530   3.6534   4.6237   4.6750   4.7097
     4.7112   4.7117   4.7117   4.7119   4.7120   4.7124   4.7141   4.7499
     4.7995   5.2565   5.3048   5.3062   5.3073   5.3075   5.3227   5.3245
     5.3390   5.3399   5.3401   5.3409   5.3617   5.3881   5.3946   5.4551
     5.4560   5.4583   5.4598   5.5262   5.5623   6.8181   6.8558   6.8594
     7.2824   7.2839   7.3851   7.4927   7.5788   7.6144   7.6155   7.6546
     7.8443   7.8455   7.8456   7.8470   8.0205   8.0210   8.0438   8.4652
     9.0050   9.0415   9.0430   9.0433   9.0448   9.2262   9.2277   9.4282
     9.4343   9.4388

          k = 0.0000 0.0000 0.2500 ( 36317 PWs)   bands (ev):

    -6.0948  -5.5975  -4.9980  -4.9965  -4.9965  -4.9958  -4.5660  -4.5644
    -4.5644  -4.5640  -4.4621  -4.2969  -4.2632  -4.0000  -3.9988  -3.8093
    -3.8080  -3.4498  -3.3632  -3.3622  -3.3621  -3.3605  -3.2089  -2.7284
    -2.2301  -2.2281  -2.2280  -2.2279  -2.2277  -2.2266  -2.1307  -2.1299
    -1.3182  -1.3165  -1.1918  -1.1900  -1.0341  -1.0330  -1.0330  -1.0316
    -0.8586  -0.7229  -0.5932  -0.5916  -0.4357   0.0424   0.0728   0.0738
     0.0739   0.0753   0.4058   0.4073   0.6716   1.3815   1.3829   1.3830
     1.3844   1.5526   2.2704   2.2707   2.2710   2.2715   2.3569   2.3574
     2.3578   2.3582   2.5612   2.5626   2.5627   2.5646   2.7010   2.7018
     2.7563   2.7567   3.1211   3.1471   3.1481   3.1822   3.1869   3.1877
     3.1878   3.1884   3.2030   3.2034   3.2038   3.2045   3.4453   3.4458
     3.4539   3.4546   3.7111   3.7142   4.0332   4.2450   4.2520   4.4151
     4.4160   4.4161   4.4171   4.7581   4.7591   4.7592   4.7602   4.8846
     4.8853   4.8855   4.8861   4.9707   4.9757   4.9768   4.9777   5.2710
     5.2820   5.2873   5.3414   5.3431   5.3455   5.4118   5.4304   5.4314
     5.4318   5.4328   5.4372   5.4388   5.5348   6.2765   6.5459   6.5489
     7.2643   7.4677   7.6859   7.6873   7.7954   7.9769   7.9781   8.1117
     8.2752   8.2760   8.2765   8.2776   8.3289   8.4351   8.4358   8.7406
     9.0273   9.1145   9.1623   9.1632   9.1634   9.1648   9.2162   9.2176
     9.3009   9.3702

          k = 0.0000 0.0000-0.5000 ( 36434 PWs)   bands (ev):

    -5.8994  -5.8983  -4.8265  -4.8232  -4.8232  -4.8229  -4.8228  -4.8226
    -4.8226  -4.8213  -4.3842  -4.3833  -3.9114  -3.9096  -3.9094  -3.9088
    -3.5710  -3.5693  -3.3398  -3.3384  -2.8322  -2.8294  -2.8292  -2.8291
    -2.8290  -2.8289  -2.8287  -2.8253  -2.1819  -2.1803  -2.1801  -2.1800
    -1.2578  -1.2568  -1.2567  -1.2543  -0.4794  -0.4766  -0.4766  -0.4763
    -0.4762  -0.4760  -0.4759  -0.4729  -0.4611  -0.4599  -0.1590  -0.1585
    -0.1582  -0.1557   0.0438   0.0456   0.3941   0.3952   1.9881   1.9905
     1.9910   1.9913   1.9914   1.9915   1.9917   1.9934   2.2151   2.2156
     2.2163   2.2164   2.2166   2.2171   2.2181   2.2189   3.0354   3.0362
     3.0365   3.0370   3.0773   3.0774   3.0778   3.0785   3.8096   3.8105
     3.8112   3.8115   3.8117   3.8117   3.8123   3.8131   3.9128   3.9142
     3.9169   3.9182   3.9566   3.9573   3.9580   3.9583   3.9584   3.9587
     3.9597   3.9601   3.9993   4.0005   4.0487   4.0493   4.0498   4.0507
     4.0963   4.0971   5.2056   5.2067   5.2076   5.2081   5.2085   5.2088
     5.2088   5.2091   5.2097   5.2113   5.3060   5.3092   5.3864   5.3895
     5.3895   5.3901   5.4710   5.4717   5.9230   5.9252   5.9260   5.9282
     7.2924   7.2936   8.3055   8.3070   8.6874   8.6880   8.6883   8.6901
     8.8870   8.8877   8.8994   8.9007   8.9014   8.9020   8.9418   8.9421
     9.0172   9.0193   9.0294   9.0308   9.0311   9.0315   9.2546   9.2553
     9.2561   9.2563

          k = 0.0000 0.2500 0.2500 ( 36395 PWs)   bands (ev):

    -6.0252  -5.5312  -5.4727  -5.0089  -4.9540  -4.9210  -4.5922  -4.5498
    -4.4882  -4.4139  -4.3968  -4.3513  -4.2035  -4.0796  -4.0149  -3.7408
    -3.5781  -3.5053  -3.3950  -3.3112  -3.2396  -3.2136  -2.9160  -2.9118
    -2.7196  -2.6883  -2.4906  -2.4102  -2.3881  -2.0689  -2.0274  -1.9494
    -1.5398  -1.2700  -1.2396  -0.9240  -0.8678  -0.8480  -0.8196  -0.7320
    -0.7181  -0.6482  -0.5783  -0.4183  -0.2364  -0.2002  -0.1903  -0.1645
    -0.1629  -0.0976   0.5829   0.6807   0.9897   0.9958   1.0237   1.0340
     1.4177   1.4870   2.0819   2.1177   2.1965   2.2475   2.2497   2.2541
     2.3082   2.3678   2.5460   2.5501   2.7349   2.7356   2.7399   2.7413
     2.8109   2.8149   2.9359   3.1440   3.1459   3.4100   3.4112   3.4388
     3.4420   3.4770   3.4780   3.5732   3.5742   3.6094   3.6131   3.6508
     3.6523   3.6548   3.6571   3.7362   3.7649   3.9685   3.9693   4.2930
     4.2949   4.3968   4.4026   4.5567   4.5589   4.6061   4.6094   4.6558
     4.7996   4.8014   4.8020   4.8067   4.8074   4.8091   4.9783   4.9820
     5.1175   5.1406   5.2048   5.2090   5.3216   5.3505   5.4225   5.4238
     5.4253   5.4294   5.5737   5.6020   5.6071   5.9891   6.2401   6.7678
     7.4918   7.6773   7.7561   7.8949   7.9327   8.1331   8.1546   8.3240
     8.4850   8.4915   8.4973   8.5228   8.6932   8.7183   8.7475   8.9222
     9.0818   9.0958   9.1254   9.1550   9.1897   9.2241   9.2763   9.4025
     9.4241   9.5223

          k = 0.0000 0.2500-0.5000 ( 36408 PWs)   bands (ev):

    -5.8309  -5.8298  -5.2888  -5.2877  -4.7892  -4.7882  -4.7488  -4.7477
    -4.4834  -4.4824  -4.2760  -4.2748  -4.2411  -4.2400  -3.5192  -3.5173
    -3.5122  -3.5110  -3.2137  -3.2123  -3.1293  -3.1275  -2.9262  -2.9247
    -2.8486  -2.8470  -2.8248  -2.8238  -2.5059  -2.5042  -1.9825  -1.9812
    -1.4175  -1.4164  -0.8388  -0.8374  -0.6146  -0.6131  -0.5991  -0.5984
    -0.5825  -0.5816  -0.5497  -0.5486  -0.4988  -0.4971  -0.1262  -0.1247
     0.3362   0.3374   0.3547   0.3564   0.3747   0.3762   1.1331   1.1343
     1.6249   1.6261   1.6480   1.6493   2.0354   2.0361   2.4492   2.4502
     2.4632   2.4642   2.4863   2.4871   2.5710   2.5716   2.8850   2.8866
     2.9968   2.9969   3.3099   3.3104   3.3890   3.3893   3.5468   3.5478
     3.5498   3.5509   3.6501   3.6509   3.6873   3.6883   3.7956   3.7967
     3.8519   3.8528   4.0500   4.0509   4.0639   4.0651   4.1424   4.1435
     4.1920   4.1929   4.2014   4.2027   4.3636   4.3641   4.4178   4.4190
     4.4902   4.4905   4.4925   4.4927   4.6206   4.6221   4.9373   4.9393
     4.9480   4.9495   5.1427   5.1432   5.1440   5.1445   5.3844   5.3861
     5.3960   5.3972   5.6201   5.6205   6.0012   6.0030   6.3420   6.3439
     7.7114   7.7126   8.0642   8.0653   8.5200   8.5213   8.6204   8.6218
     8.7089   8.7094   8.9789   8.9795   9.0029   9.0035   9.0449   9.0451
     9.0659   9.0669   9.1066   9.1075   9.2623   9.2643   9.2996   9.3007
     9.3028   9.3036

          k = 0.0000-0.5000-0.5000 ( 36332 PWs)   bands (ev):

    -5.6271  -5.6257  -5.6256  -5.6250  -4.6613  -4.6596  -4.6593  -4.6589
    -4.5641  -4.5625  -4.5622  -4.5615  -3.5605  -3.5594  -3.5589  -3.5588
    -3.3680  -3.3666  -3.3664  -3.3647  -3.1593  -3.1575  -3.1572  -3.1566
    -2.9901  -2.9898  -2.9897  -2.9872  -2.2016  -2.2000  -2.1998  -2.1984
    -1.1718  -1.1707  -1.1705  -1.1687  -0.6936  -0.6913  -0.6908  -0.6906
    -0.6225  -0.6223  -0.6219  -0.6191   0.1586   0.1599   0.1600   0.1613
     0.2524   0.2532   0.2533   0.2545   0.9774   0.9792   0.9799   0.9800
     0.9884   0.9886   0.9893   0.9912   2.1264   2.1271   2.1272   2.1279
     2.9913   2.9918   2.9928   2.9932   2.9943   2.9946   2.9956   2.9962
     3.1060   3.1065   3.1066   3.1073   3.1118   3.1120   3.1125   3.1127
     3.7161   3.7177   3.7179   3.7198   3.7662   3.7663   3.7670   3.7672
     3.8045   3.8057   3.8060   3.8070   4.1121   4.1132   4.1134   4.1145
     4.4045   4.4057   4.4063   4.4068   4.4105   4.4109   4.4116   4.4129
     4.7275   4.7284   4.7285   4.7300   4.7338   4.7351   4.7354   4.7362
     5.0003   5.0007   5.0008   5.0011   5.0373   5.0387   5.0394   5.0403
     5.0428   5.0436   5.0443   5.0457   6.4975   6.4994   6.4998   6.5019
     7.9311   7.9322   7.9324   7.9339   8.7124   8.7129   8.7136   8.7144
     8.7762   8.7768   8.7769   8.7772   8.9451   8.9459   8.9461   8.9474
     8.9904   8.9909   8.9913   8.9924   9.4089   9.4103   9.4109   9.4112
     9.7343   9.7357

          k = 0.2500 0.2500 0.2500 ( 36381 PWs)   bands (ev):

    -5.9535  -5.4609  -5.4182  -5.4174  -4.9712  -4.9704  -4.8637  -4.4530
    -4.3191  -4.3182  -4.3147  -4.1513  -4.1502  -3.9383  -3.9375  -3.6810
    -3.6797  -3.5844  -3.3086  -3.1664  -3.1179  -3.0704  -3.0445  -3.0436
    -3.0196  -2.6636  -2.5553  -2.5543  -2.4548  -2.4536  -2.2114  -2.0083
    -1.2662  -1.1896  -0.8710  -0.8699  -0.8226  -0.8013  -0.8001  -0.7415
    -0.5883  -0.5232  -0.5208  -0.4719  -0.4649  -0.3664  -0.3314  -0.0146
     0.3184   0.3194   0.3221   0.4086   0.4093   0.6557   1.2386   1.3063
     1.3086   1.6632   1.6643   1.6782   2.3274   2.3661   2.3668   2.3749
     2.3758   2.4290   2.4308   2.4315   2.4328   3.0215   3.0370   3.0509
     3.1156   3.1389   3.1396   3.1479   3.1486   3.1700   3.1769   3.1777
     3.1847   3.5414   3.5469   3.5477   3.5503   3.5514   3.5588   3.8163
     3.8293   3.8475   3.8524   3.8532   3.8538   4.1785   4.2281   4.2301
     4.2313   4.2408   4.2920   4.3499   4.3560   4.3565   4.6252   4.6611
     4.6621   4.6678   4.6691   4.7022   4.7040   4.7056   4.7060   4.9656
     5.0010   5.0581   5.1235   5.3456   5.3462   5.3520   5.3901   5.3917
     5.3954   5.5856   5.5907   5.9433   5.9442   5.9453   6.4999   6.5151
     7.4713   7.6488   7.8055   8.0752   8.0944   8.0952   8.1478   8.5966
     8.5975   8.6021   8.6237   8.6261   8.6807   8.9003   8.9070   8.9415
     8.9495   8.9505   9.1278   9.1752   9.1764   9.1859   9.1879   9.2192
     9.2631   9.2712

          k = 0.2500 0.2500-0.5000 ( 36310 PWs)   bands (ev):

    -5.7599  -5.7588  -5.2398  -5.2381  -5.2379  -5.2372  -4.6997  -4.6985
    -4.2373  -4.2363  -4.1656  -4.1638  -4.1637  -4.1631  -3.4754  -3.4736
    -3.2974  -3.2960  -3.1998  -3.1985  -3.1047  -3.1036  -3.1034  -3.1010
    -3.0969  -3.0961  -2.7571  -2.7551  -2.7550  -2.7541  -2.1181  -2.1169
    -1.2221  -1.2210  -0.7228  -0.7224  -0.7221  -0.7193  -0.6375  -0.6359
    -0.4574  -0.4560  -0.3851  -0.3847  -0.2761  -0.2744  -0.2739  -0.2732
     0.0859   0.0877   0.2578   0.2591   0.8882   0.8888   0.8890   0.8917
     0.9633   0.9650   2.2949   2.2954   2.2957   2.2968   2.3710   2.3724
     2.3730   2.3735   2.5837   2.5845   2.6512   2.6523   2.7446   2.7452
     2.7456   2.7468   3.2520   3.2527   3.3394   3.3407   3.5466   3.5472
     3.5479   3.5484   3.6956   3.6966   3.7660   3.7670   3.7757   3.7763
     3.8260   3.8277   3.9806   3.9812   3.9815   3.9836   4.0263   4.0278
     4.0773   4.0788   4.2153   4.2156   4.2161   4.2170   4.4841   4.4843
     4.4847   4.4856   4.7710   4.7737   4.8385   4.8386   4.8391   4.8415
     4.8431   4.8445   4.8889   4.8893   5.0726   5.0734   5.8072   5.8091
     5.8812   5.8825   5.8829   5.8840   5.9521   5.9542   6.1876   6.1891
     7.7980   7.7994   8.0147   8.0160   8.3080   8.3093   8.6086   8.6093
     8.6098   8.6110   8.6398   8.6403   8.7259   8.7266   8.7270   8.7285
     8.8068   8.8079   8.9163   8.9175   8.9436   8.9455   9.2748   9.2752
     9.2764   9.2766

          k = 0.2500-0.5000-0.5000 ( 36276 PWs)   bands (ev):

    -5.5674  -5.5663  -5.5536  -5.5525  -5.0712  -5.0701  -5.0167  -5.0156
    -4.1939  -4.1930  -4.0020  -4.0009  -3.6277  -3.6267  -3.4781  -3.4769
    -3.3430  -3.3413  -3.3218  -3.3201  -3.2315  -3.2302  -3.1811  -3.1795
    -3.0867  -3.0851  -2.9356  -2.9342  -2.6897  -2.6884  -2.4006  -2.3993
    -0.9577  -0.9565  -0.7502  -0.7490  -0.6329  -0.6316  -0.5510  -0.5498
    -0.5209  -0.5196  -0.4885  -0.4869   0.0354   0.0367   0.0374   0.0388
     0.1113   0.1126   0.1718   0.1729   0.3769   0.3784   0.4087   0.4101
     1.6518   1.6533   1.6746   1.6762   2.3332   2.3339   2.3346   2.3353
     2.9444   2.9459   2.9522   2.9531   2.9544   2.9554   2.9569   2.9578
     2.9654   2.9664   2.9894   2.9900   2.9909   2.9920   2.9950   2.9959
     3.2448   3.2463   3.2811   3.2826   3.7613   3.7623   3.7688   3.7701
     4.0251   4.0269   4.0270   4.0272   4.0285   4.0288   4.0289   4.0306
     4.1737   4.1748   4.1772   4.1781   4.4298   4.4310   4.4332   4.4342
     4.4347   4.4358   4.4379   4.4387   4.6487   4.6499   4.6588   4.6596
     5.4830   5.4834   5.4845   5.4847   5.4945   5.4957   5.4982   5.4996
     5.6095   5.6110   5.6115   5.6129   6.3430   6.3449   6.3460   6.3480
     7.9725   7.9739   8.0267   8.0279   8.3285   8.3300   8.3659   8.3678
     8.3717   8.3721   8.4468   8.4477   8.5426   8.5440   8.6455   8.6467
     8.7370   8.7376   8.7662   8.7671   8.8505   8.8509   8.8604   8.8621
     8.9031   8.9039

          k =-0.5000-0.5000-0.5000 ( 36120 PWs)   bands (ev):

    -5.3807  -5.3789  -5.3787  -5.3781  -5.3502  -5.3485  -5.3485  -5.3477
    -3.8024  -3.8009  -3.8007  -3.8004  -3.3618  -3.3583  -3.3580  -3.3579
    -3.3577  -3.3576  -3.3575  -3.3564  -3.2665  -3.2645  -3.2643  -3.2631
    -3.2165  -3.2157  -3.2155  -3.2129  -2.7859  -2.7856  -2.7853  -2.7824
    -0.6010  -0.5987  -0.5985  -0.5981  -0.2585  -0.2565  -0.2560  -0.2556
    -0.2481  -0.2479  -0.2473  -0.2454  -0.1926  -0.1922  -0.1919  -0.1918
    -0.1916  -0.1915  -0.1910  -0.1854   0.0741   0.0775   0.0777   0.0786
     2.3977   2.3991   2.3998   2.4002   2.4394   2.4395   2.4404   2.4420
     2.8589   2.8597   2.8600   2.8607   2.9144   2.9155   2.9162   2.9169
     2.9170   2.9173   2.9177   2.9182   2.9206   2.9211   2.9220   2.9225
     2.9480   2.9484   2.9491   2.9503   2.9788   2.9799   2.9811   2.9822
     4.3195   4.3215   4.3223   4.3227   4.3503   4.3534   4.3540   4.3541
     4.3542   4.3543   4.3545   4.3547   4.3549   4.3550   4.3554   4.3555
     4.3556   4.3558   4.3569   4.3593   4.3917   4.3927   4.3927   4.3932
     5.9586   5.9606   5.9613   5.9614   5.9634   5.9652   5.9657   5.9663
     5.9665   5.9667   5.9671   5.9673   5.9686   5.9686   5.9692   5.9724
     8.1088   8.1099   8.1103   8.1118   8.2352   8.2358   8.2358   8.2385
     8.2689   8.2726   8.2729   8.2731   8.2751   8.2762   8.2764   8.2766
     8.2767   8.2769   8.2775   8.2804   8.4637   8.4662   8.4664   8.4666
     8.5499   8.5501

          k = 0.2500 0.0000 0.0000 ( 36317 PWs)   bands (ev):

    -6.0915  -5.5358  -5.3033  -5.0114  -4.9804  -4.8031  -4.6329  -4.5609
    -4.4628  -4.4511  -4.3928  -4.2968  -4.2866  -4.0598  -3.9438  -3.8657
    -3.6637  -3.6627  -3.5495  -3.5105  -3.2549  -3.2281  -3.1303  -2.9447
    -2.6679  -2.2936  -2.1621  -2.0542  -1.9368  -1.7933  -1.7168  -1.7077
    -1.6908  -1.5908  -1.5881  -1.5727  -1.1931  -1.0905  -0.9792  -0.8188
    -0.7107  -0.6860  -0.5746  -0.4850  -0.4660  -0.1192  -0.0116   0.1469
     0.1509   0.2131   0.3599   0.5321   0.6206   1.1184   1.3696   1.4327
     1.5636   1.6218   2.2521   2.2741   2.2753   2.2756   2.2991   2.3514
     2.3524   2.3544   2.3578   2.5593   2.5646   2.7269   2.7283   2.7292
     2.7297   2.7929   3.1007   3.1204   3.1716   3.1758   3.1775   3.1835
     3.1868   3.1953   3.1994   3.2026   3.2035   3.2371   3.4480   3.4493
     3.4499   3.4511   3.7130   3.7149   4.0167   4.2520   4.2530   4.3560
     4.4152   4.4159   4.4755   4.7538   4.7556   4.7580   4.7593   4.8453
     4.8860   4.8861   4.9324   4.9637   4.9657   4.9728   4.9880   5.2790
     5.2810   5.3200   5.3359   5.3482   5.3643   5.4086   5.4251   5.4268
     5.4330   5.4357   5.4513   5.4592   5.4657   6.2840   6.5320   6.5477
     7.2502   7.5077   7.6486   7.7888   7.8482   7.8816   7.9720   8.0509
     8.0816   8.2727   8.2849   8.2931   8.4095   8.4513   8.4781   8.8405
     8.9709   9.0412   9.0773   9.0897   9.1463   9.2357   9.2466   9.3194
     9.3576   9.4361

          k = 0.0000 0.2500 0.0000 ( 36317 PWs)   bands (ev):

    -6.0915  -5.5358  -5.3033  -5.0114  -4.9804  -4.8031  -4.6329  -4.5609
    -4.4628  -4.4511  -4.3928  -4.2968  -4.2866  -4.0598  -3.9438  -3.8657
    -3.6640  -3.6624  -3.5495  -3.5105  -3.2549  -3.2281  -3.1303  -2.9447
    -2.6679  -2.2936  -2.1621  -2.0542  -1.9368  -1.7933  -1.7168  -1.7077
    -1.6908  -1.5908  -1.5881  -1.5726  -1.1931  -1.0905  -0.9792  -0.8188
    -0.7107  -0.6860  -0.5746  -0.4850  -0.4660  -0.1192  -0.0116   0.1469
     0.1509   0.2131   0.3599   0.5321   0.6206   1.1184   1.3696   1.4327
     1.5636   1.6217   2.2521   2.2743   2.2753   2.2754   2.2991   2.3514
     2.3523   2.3544   2.3578   2.5593   2.5646   2.7268   2.7281   2.7293
     2.7298   2.7929   3.1007   3.1204   3.1716   3.1757   3.1775   3.1835
     3.1869   3.1953   3.1993   3.2022   3.2041   3.2370   3.4480   3.4490
     3.4501   3.4511   3.7131   3.7148   4.0167   4.2523   4.2528   4.3560
     4.4151   4.4160   4.4755   4.7537   4.7556   4.7580   4.7594   4.8453
     4.8857   4.8863   4.9324   4.9635   4.9657   4.9729   4.9880   5.2792
     5.2809   5.3200   5.3360   5.3482   5.3643   5.4086   5.4253   5.4266
     5.4330   5.4358   5.4513   5.4592   5.4657   6.2840   6.5321   6.5476
     7.2502   7.5077   7.6486   7.7888   7.8482   7.8816   7.9720   8.0509
     8.0816   8.2726   8.2849   8.2931   8.4095   8.4513   8.4781   8.8405
     8.9709   9.0413   9.0773   9.0898   9.1463   9.2357   9.2467   9.3194
     9.3576   9.4361

          k =-0.5000 0.0000 0.0000 ( 36434 PWs)   bands (ev):

    -5.8828  -5.8818  -5.1141  -5.1131  -4.8572  -4.8564  -4.7816  -4.7811
    -4.3713  -4.3699  -4.3485  -4.3477  -4.1419  -4.1409  -3.7350  -3.7337
    -3.6511  -3.6505  -3.3974  -3.3963  -3.2815  -3.2807  -2.9193  -2.9178
    -2.7530  -2.7512  -2.5696  -2.5675  -1.8054  -1.8046  -1.7431  -1.7416
    -1.6526  -1.6508  -1.6049  -1.6039  -0.6929  -0.6918  -0.5380  -0.5366
    -0.4197  -0.4181  -0.3634  -0.3623  -0.3470  -0.3462  -0.1758  -0.1740
    -0.0464  -0.0447   0.0179   0.0192   0.4743   0.4756   1.7444   1.7456
     2.0028   2.0040   2.0233   2.0244   2.1846   2.1856   2.2005   2.2011
     2.2012   2.2021   2.2097   2.2103   2.2182   2.2187   3.0547   3.0550
     3.0567   3.0569   3.0570   3.0573   3.0579   3.0583   3.7652   3.7652
     3.8021   3.8031   3.8125   3.8131   3.8628   3.8632   3.9161   3.9169
     3.9178   3.9185   3.9529   3.9537   3.9546   3.9548   3.9556   3.9563
     3.9619   3.9622   3.9920   3.9926   4.0438   4.0451   4.0541   4.0550
     4.1026   4.1038   5.1836   5.1843   5.2036   5.2037   5.2096   5.2100
     5.2107   5.2111   5.2405   5.2406   5.3673   5.3687   5.3820   5.3831
     5.3970   5.3980   5.4094   5.4109   5.9194   5.9199   5.9249   5.9256
     7.3076   7.3087   8.2807   8.2819   8.6963   8.6969   8.7206   8.7220
     8.7435   8.7443   8.8159   8.8167   8.8404   8.8406   8.8833   8.8840
     8.9667   8.9676   9.0594   9.0600   9.0698   9.0701   9.2733   9.2740
     9.3008   9.3013

          k = 0.0000-0.5000 0.0000 ( 36434 PWs)   bands (ev):

    -5.8824  -5.8821  -5.1141  -5.1131  -4.8574  -4.8563  -4.7819  -4.7807
    -4.3709  -4.3703  -4.3484  -4.3478  -4.1419  -4.1408  -3.7346  -3.7341
    -3.6515  -3.6500  -3.3977  -3.3959  -3.2815  -3.2807  -2.9191  -2.9180
    -2.7527  -2.7515  -2.5687  -2.5685  -1.8056  -1.8044  -1.7431  -1.7416
    -1.6525  -1.6509  -1.6053  -1.6034  -0.6931  -0.6917  -0.5380  -0.5366
    -0.4197  -0.4181  -0.3634  -0.3622  -0.3470  -0.3462  -0.1755  -0.1743
    -0.0463  -0.0448   0.0179   0.0192   0.4747   0.4752   1.7447   1.7454
     2.0028   2.0040   2.0233   2.0244   2.1848   2.1855   2.2005   2.2010
     2.2014   2.2019   2.2097   2.2103   2.2182   2.2187   3.0546   3.0550
     3.0563   3.0568   3.0571   3.0575   3.0581   3.0584   3.7651   3.7654
     3.8022   3.8030   3.8125   3.8131   3.8628   3.8632   3.9168   3.9169
     3.9178   3.9178   3.9530   3.9538   3.9546   3.9547   3.9554   3.9564
     3.9616   3.9624   3.9920   3.9925   4.0440   4.0449   4.0542   4.0548
     4.1026   4.1038   5.1836   5.1843   5.2034   5.2038   5.2095   5.2100
     5.2105   5.2113   5.2403   5.2410   5.3675   5.3686   5.3822   5.3830
     5.3970   5.3980   5.4100   5.4102   5.9199   5.9200   5.9249   5.9250
     7.3080   7.3083   8.2810   8.2815   8.6963   8.6968   8.7205   8.7221
     8.7435   8.7444   8.8158   8.8168   8.8403   8.8407   8.8833   8.8840
     8.9667   8.9675   9.0594   9.0600   9.0698   9.0702   9.2732   9.2741
     9.3008   9.3013

          k = 0.0000-0.2500 0.2500 ( 36395 PWs)   bands (ev):

    -6.0252  -5.5313  -5.4728  -5.0088  -4.9539  -4.9210  -4.5922  -4.5499
    -4.4883  -4.4139  -4.3967  -4.3512  -4.2034  -4.0793  -4.0151  -3.7411
    -3.5785  -3.5051  -3.3949  -3.3110  -3.2394  -3.2139  -2.9154  -2.9119
    -2.7194  -2.6885  -2.4908  -2.4096  -2.3884  -2.0699  -2.0279  -1.9488
    -1.5405  -1.2693  -1.2383  -0.9234  -0.8688  -0.8474  -0.8187  -0.7317
    -0.7170  -0.6488  -0.5779  -0.4196  -0.2370  -0.2010  -0.1910  -0.1651
    -0.1636  -0.0984   0.5842   0.6819   0.9902   0.9963   1.0242   1.0344
     1.4170   1.4863   2.0818   2.1163   2.1963   2.2481   2.2503   2.2538
     2.3076   2.3671   2.5457   2.5499   2.7356   2.7363   2.7405   2.7420
     2.8108   2.8148   2.9351   3.1448   3.1467   3.4091   3.4104   3.4391
     3.4424   3.4770   3.4779   3.5730   3.5740   3.6107   3.6143   3.6505
     3.6520   3.6545   3.6568   3.7365   3.7657   3.9687   3.9694   4.2938
     4.2956   4.3956   4.4013   4.5558   4.5581   4.6049   4.6081   4.6568
     4.8005   4.8010   4.8031   4.8062   4.8076   4.8087   4.9781   4.9817
     5.1178   5.1406   5.2050   5.2091   5.3229   5.3513   5.4222   5.4242
     5.4250   5.4294   5.5719   5.6005   5.6057   5.9907   6.2403   6.7700
     7.4928   7.6774   7.7564   7.8947   7.9324   8.1331   8.1545   8.3244
     8.4854   8.4921   8.4980   8.5241   8.6922   8.7186   8.7477   8.9215
     9.0811   9.0948   9.1251   9.1539   9.1897   9.2243   9.2764   9.4024
     9.4239   9.5223

          k = 0.2500 0.0000-0.2500 ( 36395 PWs)   bands (ev):

    -6.0252  -5.5313  -5.4727  -5.0089  -4.9540  -4.9210  -4.5922  -4.5498
    -4.4883  -4.4140  -4.3968  -4.3513  -4.2034  -4.0793  -4.0150  -3.7409
    -3.5785  -3.5051  -3.3947  -3.3113  -3.2396  -3.2136  -2.9158  -2.9118
    -2.7195  -2.6884  -2.4910  -2.4099  -2.3879  -2.0694  -2.0276  -1.9491
    -1.5402  -1.2696  -1.2390  -0.9242  -0.8683  -0.8472  -0.8196  -0.7318
    -0.7171  -0.6485  -0.5781  -0.4190  -0.2364  -0.2010  -0.1903  -0.1653
    -0.1627  -0.0984   0.5835   0.6813   0.9894   0.9963   1.0245   1.0339
     1.4173   1.4866   2.0819   2.1170   2.1966   2.2477   2.2500   2.2536
     2.3080   2.3676   2.5458   2.5501   2.7354   2.7360   2.7403   2.7414
     2.8109   2.8148   2.9355   3.1444   3.1463   3.4096   3.4107   3.4386
     3.4425   3.4770   3.4779   3.5730   3.5742   3.6101   3.6137   3.6507
     3.6518   3.6552   3.6566   3.7364   3.7653   3.9683   3.9697   4.2934
     4.2952   4.3962   4.4019   4.5559   4.5589   4.6056   4.6086   4.6564
     4.8002   4.8012   4.8022   4.8065   4.8081   4.8084   4.9782   4.9818
     5.1178   5.1406   5.2046   5.2091   5.3221   5.3509   5.4231   5.4235
     5.4252   5.4292   5.5728   5.6014   5.6062   5.9899   6.2402   6.7689
     7.4925   7.6774   7.7560   7.8947   7.9325   8.1331   8.1546   8.3243
     8.4854   8.4918   8.4976   8.5234   8.6927   8.7184   8.7477   8.9217
     9.0813   9.0953   9.1247   9.1544   9.1898   9.2248   9.2763   9.4024
     9.5220   9.5999

          k =-0.2500 0.0000-0.2500 ( 36395 PWs)   bands (ev):

    -6.0252  -5.5313  -5.4727  -5.0089  -4.9539  -4.9211  -4.5922  -4.5499
    -4.4881  -4.4139  -4.3968  -4.3512  -4.2034  -4.0796  -4.0150  -3.7409
    -3.5781  -3.5053  -3.3952  -3.3109  -3.2394  -3.2139  -2.9158  -2.9118
    -2.7195  -2.6884  -2.4904  -2.4099  -2.3885  -2.0694  -2.0276  -1.9491
    -1.5401  -1.2697  -1.2390  -0.9232  -0.8683  -0.8482  -0.8187  -0.7318
    -0.7181  -0.6485  -0.5781  -0.4190  -0.2370  -0.2001  -0.1911  -0.1643
    -0.1637  -0.0977   0.5835   0.6813   0.9905   0.9957   1.0234   1.0344
     1.4174   1.4867   2.0819   2.1170   2.1962   2.2479   2.2500   2.2543
     2.3078   2.3673   2.5459   2.5500   2.7350   2.7363   2.7399   2.7419
     2.8109   2.8148   2.9355   3.1444   3.1463   3.4101   3.4103   3.4393
     3.4419   3.4770   3.4780   3.5736   3.5736   3.6102   3.6136   3.6515
     3.6517   3.6544   3.6566   3.7363   3.7653   3.9688   3.9691   4.2934
     4.2953   4.3964   4.4017   4.5570   4.5579   4.6057   4.6085   4.6563
     4.8005   4.8015   4.8020   4.8062   4.8071   4.8093   4.9783   4.9819
     5.1174   5.1405   5.2050   5.2091   5.3224   5.3508   5.4217   5.4248
     5.4249   5.4295   5.5729   5.6014   5.6062   5.9899   6.2402   6.7689
     7.4922   7.6773   7.7564   7.8948   7.9326   8.1330   8.1545   8.3242
     8.4850   8.4919   8.4975   8.5234   8.6927   8.7184   8.7476   8.9220
     9.0816   9.0953   9.1258   9.1545   9.1897   9.2237   9.2764   9.4025
     9.4240   9.5226

          k = 0.2500-0.2500 0.0000 ( 36395 PWs)   bands (ev):

    -6.0244  -5.4617  -5.4609  -5.2492  -5.0012  -4.7221  -4.7209  -4.4908
    -4.4890  -4.4289  -4.4282  -4.0441  -4.0431  -3.9304  -3.9295  -3.8930
    -3.8919  -3.6245  -3.6233  -3.5246  -3.0354  -3.0341  -2.8983  -2.8211
    -2.8201  -2.6005  -2.5994  -2.3174  -2.3161  -2.1236  -2.1220  -1.8065
    -1.6592  -1.1889  -1.1874  -0.9547  -0.9530  -0.7672  -0.7658  -0.6896
    -0.6880  -0.6464  -0.6449  -0.4456  -0.3901  -0.3452  -0.3445  -0.1198
     0.0729   0.0750   0.6491   0.6505   0.7308   0.7315   1.2123   1.2134
     1.5015   1.5034   2.0309   2.0801   2.1292   2.2501   2.2509   2.3043
     2.3048   2.4160   2.5482   2.5491   2.6733   2.6737   2.8043   2.8048
     2.8072   2.8082   2.9337   3.1464   3.1470   3.4067   3.4081   3.4418
     3.4426   3.4780   3.4783   3.5731   3.5741   3.6058   3.6070   3.6212
     3.6222   3.6827   3.6834   3.7346   3.7652   3.9687   3.9693   4.2934
     4.2938   4.3999   4.4015   4.5576   4.5723   4.6057   4.6073   4.6534
     4.7581   4.7954   4.7963   4.8146   4.8154   4.8459   4.9761   4.9765
     5.0847   5.1795   5.1803   5.2383   5.2590   5.3986   5.3993   5.4123
     5.4519   5.4529   5.5720   5.6034   5.6052   5.9909   6.2336   6.7766
     7.5547   7.6407   7.6420   7.9445   7.9457   8.1238   8.2065   8.2078
     8.2627   8.5098   8.6616   8.7118   8.7131   8.7488   8.7913   8.9147
     8.9151   9.0995   9.1010   9.1823   9.1836   9.3191   9.3197   9.4306
     9.4311   9.5208

          k =-0.2500-0.2500 0.0000 ( 36395 PWs)   bands (ev):

    -6.0196  -5.4799  -5.4791  -5.2322  -4.9205  -4.7830  -4.7821  -4.5070
    -4.3727  -4.3718  -4.3450  -4.2685  -4.1115  -3.9762  -3.9746  -3.7931
    -3.7804  -3.7796  -3.3498  -3.2317  -3.2306  -3.1935  -3.0637  -3.0090
    -2.9851  -2.4893  -2.4882  -2.2470  -2.0136  -2.0116  -1.9568  -1.8961
    -1.5743  -1.2894  -1.2844  -1.2832  -1.1794  -0.9620  -0.8123  -0.8103
    -0.5411  -0.5084  -0.4163  -0.3349  -0.3224  -0.3212  -0.3153  -0.0490
     0.1047   0.1063   0.2131   0.8238   0.8249   0.9858   1.1030   1.1038
     1.4798   1.4817   1.9707   2.0748   2.1149   2.2483   2.2489   2.2500
     2.3685   2.4898   2.5478   2.5486   2.7163   2.7167   2.7546   2.7549
     2.7944   2.8279   2.9369   3.1440   3.1446   3.4068   3.4080   3.4287
     3.4528   3.4547   3.5028   3.5590   3.5893   3.6102   3.6114   3.6241
     3.6250   3.6873   3.6893   3.7311   3.7629   3.9688   3.9695   4.2925
     4.2928   4.3581   4.4337   4.5547   4.5647   4.5769   4.6364   4.6560
     4.7190   4.7970   4.7981   4.8138   4.8144   4.8830   4.9759   4.9762
     5.1289   5.1304   5.2129   5.2305   5.2864   5.3592   5.4054   5.4072
     5.4469   5.4472   5.5733   5.6020   5.6039   5.9906   6.2237   6.7798
     7.5552   7.6006   7.8564   7.9307   7.9320   7.9955   8.2884   8.3405
     8.4030   8.5529   8.5544   8.5678   8.5891   8.6449   8.7256   8.7269
     9.1170   9.1187   9.1452   9.1469   9.3008   9.3287   9.3589   9.3597
     9.3812   9.3815

          k = 0.2500 0.0000 0.5000 ( 36408 PWs)   bands (ev):

    -5.8309  -5.8298  -5.2888  -5.2877  -4.7892  -4.7881  -4.7488  -4.7477
    -4.4834  -4.4824  -4.2760  -4.2748  -4.2410  -4.2400  -3.5192  -3.5173
    -3.5122  -3.5110  -3.2137  -3.2123  -3.1292  -3.1275  -2.9263  -2.9247
    -2.8487  -2.8470  -2.8248  -2.8238  -2.5058  -2.5044  -1.9824  -1.9813
    -1.4173  -1.4166  -0.8384  -0.8378  -0.6145  -0.6131  -0.5990  -0.5986
    -0.5827  -0.5813  -0.5499  -0.5484  -0.4988  -0.4971  -0.1259  -0.1250
     0.3362   0.3373   0.3547   0.3564   0.3746   0.3762   1.1336   1.1337
     1.6247   1.6263   1.6478   1.6495   2.0354   2.0360   2.4494   2.4500
     2.4634   2.4640   2.4867   2.4868   2.5710   2.5716   2.8857   2.8860
     2.9968   2.9969   3.3101   3.3102   3.3890   3.3893   3.5473   3.5476
     3.5501   3.5504   3.6501   3.6508   3.6876   3.6881   3.7959   3.7964
     3.8519   3.8527   4.0498   4.0510   4.0637   4.0652   4.1427   4.1432
     4.1920   4.1929   4.2014   4.2027   4.3637   4.3640   4.4183   4.4186
     4.4898   4.4909   4.4920   4.4932   4.6213   4.6214   4.9374   4.9393
     4.9480   4.9495   5.1423   5.1435   5.1436   5.1450   5.3844   5.3861
     5.3960   5.3973   5.6201   5.6205   6.0018   6.0023   6.3427   6.3431
     7.7114   7.7126   8.0646   8.0649   8.5204   8.5208   8.6204   8.6218
     8.7090   8.7093   8.9791   8.9793   9.0029   9.0034   9.0447   9.0453
     9.0661   9.0667   9.1069   9.1072   9.2626   9.2645   9.2999   9.3006
     9.3026   9.3037

          k =-0.5000-0.2500 0.0000 ( 36408 PWs)   bands (ev):

    -5.8193  -5.8089  -5.2969  -5.2553  -5.0730  -5.0366  -4.6702  -4.5386
    -4.3420  -4.3313  -4.2922  -4.1844  -3.9981  -3.9423  -3.7909  -3.7701
    -3.6827  -3.6464  -3.4377  -3.3797  -3.2260  -3.1997  -2.9691  -2.9632
    -2.8279  -2.6729  -2.5881  -2.4696  -2.4594  -2.4058  -1.9950  -1.8976
    -1.4851  -1.3972  -0.9283  -0.8753  -0.8526  -0.7777  -0.7512  -0.7062
    -0.6457  -0.6126  -0.3666  -0.3442  -0.3310  -0.2663  -0.2495  -0.0697
     0.1105   0.2035   0.3992   0.4360   0.4730   0.5505   1.1234   1.1947
     1.3718   1.4622   1.7588   1.8629   2.0332   2.0337   2.3819   2.4423
     2.4553   2.4858   2.4886   2.5242   2.5826   2.5847   2.8748   2.8797
     2.9959   2.9964   3.3089   3.3101   3.3854   3.3901   3.4686   3.5422
     3.5557   3.6268   3.6533   3.6545   3.6861   3.6881   3.7938   3.7948
     3.8536   3.8551   4.0628   4.0666   4.0674   4.0703   4.1377   4.1414
     4.1582   4.1780   4.2024   4.2120   4.3615   4.3624   4.4182   4.4192
     4.4441   4.4881   4.4953   4.5352   4.6159   4.6163   4.9202   4.9385
     4.9572   4.9753   5.1119   5.1232   5.1733   5.1833   5.3634   5.3694
     5.4098   5.4127   5.6127   5.6157   6.0036   6.0049   6.3420   6.3447
     7.7206   7.7328   8.0618   8.0987   8.4925   8.5425   8.5844   8.6031
     8.7214   8.7623   8.8573   8.8717   8.9410   8.9573   8.9712   8.9804
     9.0416   9.0892   9.1195   9.1837   9.2027   9.2053   9.2124   9.2318
     9.3298   9.3698

          k = 0.0000-0.5000 0.2500 ( 36408 PWs)   bands (ev):

    -5.8172  -5.8169  -5.3340  -5.3334  -4.8057  -4.8047  -4.7258  -4.7246
    -4.4631  -4.4622  -4.3209  -4.3198  -4.0268  -4.0264  -3.6887  -3.6882
    -3.4470  -3.4457  -3.3847  -3.3840  -3.2507  -3.2491  -2.9752  -2.9741
    -2.8091  -2.8078  -2.5753  -2.5749  -2.4422  -2.4415  -1.9623  -1.9612
    -1.4380  -1.4364  -0.8781  -0.8766  -0.7717  -0.7709  -0.6191  -0.6176
    -0.5718  -0.5708  -0.5409  -0.5397  -0.5158  -0.5140   0.0011   0.0023
     0.3502   0.3513   0.3761   0.3771   0.4196   0.4203   1.0598   1.0610
     1.6407   1.6416   1.6419   1.6429   2.0337   2.0341   2.4497   2.4509
     2.4616   2.4628   2.4871   2.4878   2.5849   2.5850   2.8782   2.8796
     2.9945   2.9946   3.3092   3.3097   3.3923   3.3926   3.5454   3.5466
     3.5498   3.5510   3.6492   3.6493   3.6902   3.6911   3.7930   3.7940
     3.8559   3.8564   4.0541   4.0549   4.0650   4.0658   4.1408   4.1418
     4.1868   4.1873   4.1959   4.1965   4.3616   4.3621   4.4245   4.4256
     4.4877   4.4886   4.4888   4.4900   4.6167   4.6183   4.9508   4.9516
     4.9559   4.9566   5.1443   5.1453   5.1459   5.1469   5.3826   5.3830
     5.3846   5.3851   5.6194   5.6197   6.0046   6.0063   6.3375   6.3394
     7.7004   7.7011   8.1006   8.1017   8.5625   8.5638   8.6653   8.6656
     8.6731   8.6733   8.8349   8.8357   8.8957   8.8963   9.0097   9.0105
     9.0372   9.0380   9.1039   9.1047   9.1082   9.1093   9.2413   9.2417
     9.2768   9.2776

          k = 0.2500-0.5000 0.0000 ( 36408 PWs)   bands (ev):

    -5.8193  -5.8089  -5.2969  -5.2553  -5.0730  -5.0366  -4.6702  -4.5386
    -4.3420  -4.3313  -4.2922  -4.1844  -3.9981  -3.9423  -3.7909  -3.7701
    -3.6827  -3.6464  -3.4377  -3.3797  -3.2260  -3.1997  -2.9691  -2.9632
    -2.8279  -2.6729  -2.5881  -2.4697  -2.4594  -2.4057  -1.9950  -1.8976
    -1.4851  -1.3972  -0.9283  -0.8753  -0.8526  -0.7777  -0.7512  -0.7062
    -0.6457  -0.6126  -0.3666  -0.3442  -0.3310  -0.2664  -0.2495  -0.0697
     0.1105   0.2035   0.3992   0.4360   0.4730   0.5505   1.1234   1.1947
     1.3718   1.4622   1.7588   1.8629   2.0335   2.0335   2.3819   2.4423
     2.4553   2.4858   2.4886   2.5242   2.5826   2.5846   2.8748   2.8797
     2.9959   2.9964   3.3089   3.3101   3.3854   3.3901   3.4686   3.5422
     3.5557   3.6268   3.6535   3.6543   3.6861   3.6880   3.7940   3.7947
     3.8537   3.8550   4.0628   4.0664   4.0676   4.0702   4.1377   4.1414
     4.1582   4.1780   4.2025   4.2120   4.3615   4.3624   4.4183   4.4192
     4.4441   4.4881   4.4953   4.5352   4.6159   4.6163   4.9202   4.9386
     4.9572   4.9753   5.1119   5.1232   5.1733   5.1833   5.3635   5.3694
     5.4099   5.4126   5.6127   5.6157   6.0036   6.0049   6.3420   6.3447
     7.7206   7.7328   8.0618   8.0987   8.4925   8.5426   8.5844   8.6031
     8.7214   8.7622   8.8573   8.8717   8.9410   8.9573   8.9711   8.9804
     9.0416   9.0891   9.0977   9.1195   9.1836   9.2029   9.2052   9.2124
     9.2319   9.3300

          k =-0.5000 0.0000 0.2500 ( 36408 PWs)   bands (ev):

    -5.8175  -5.8166  -5.3342  -5.3332  -4.8056  -4.8048  -4.7255  -4.7249
    -4.4631  -4.4622  -4.3207  -4.3200  -4.0272  -4.0260  -3.6891  -3.6878
    -3.4468  -3.4460  -3.3848  -3.3838  -3.2505  -3.2493  -2.9753  -2.9739
    -2.8093  -2.8076  -2.5755  -2.5746  -2.4428  -2.4410  -1.9623  -1.9612
    -1.4376  -1.4369  -0.8777  -0.8771  -0.7717  -0.7709  -0.6191  -0.6176
    -0.5719  -0.5708  -0.5410  -0.5396  -0.5158  -0.5140   0.0010   0.0024
     0.3501   0.3514   0.3760   0.3772   0.4192   0.4206   1.0601   1.0607
     1.6404   1.6417   1.6418   1.6431   2.0336   2.0342   2.4498   2.4507
     2.4617   2.4627   2.4875   2.4875   2.5846   2.5853   2.8788   2.8790
     2.9945   2.9946   3.3094   3.3094   3.3923   3.3925   3.5457   3.5465
     3.5499   3.5507   3.6490   3.6495   3.6905   3.6908   3.7931   3.7938
     3.8558   3.8565   4.0539   4.0551   4.0650   4.0659   4.1410   4.1416
     4.1863   4.1877   4.1957   4.1967   4.3617   4.3621   4.4248   4.4252
     4.4878   4.4886   4.4888   4.4899   4.6175   4.6176   4.9505   4.9517
     4.9558   4.9569   5.1444   5.1455   5.1457   5.1468   5.3820   5.3833
     5.3844   5.3857   5.6194   5.6197   6.0052   6.0056   6.3383   6.3387
     7.7001   7.7014   8.1008   8.1014   8.5630   8.5633   8.6654   8.6656
     8.6726   8.6736   8.8347   8.8359   8.8958   8.8961   9.0099   9.0103
     9.0371   9.0382   9.1041   9.1047   9.1086   9.1087   9.2413   9.2416
     9.2767   9.2777

          k =-0.5000 0.0000 0.5000 ( 36332 PWs)   bands (ev):

    -5.6273  -5.6257  -5.6256  -5.6248  -4.6610  -4.6597  -4.6594  -4.6591
    -4.5638  -4.5625  -4.5622  -4.5618  -3.5609  -3.5592  -3.5590  -3.5584
    -3.3681  -3.3665  -3.3665  -3.3645  -3.1594  -3.1574  -3.1573  -3.1565
    -2.9903  -2.9898  -2.9897  -2.9871  -2.2014  -2.1999  -2.1999  -2.1985
    -1.1713  -1.1706  -1.1705  -1.1694  -0.6935  -0.6912  -0.6910  -0.6906
    -0.6226  -0.6221  -0.6220  -0.6192   0.1587   0.1599   0.1599   0.1614
     0.2519   0.2532   0.2533   0.2550   0.9772   0.9794   0.9798   0.9801
     0.9884   0.9886   0.9892   0.9914   2.1266   2.1271   2.1272   2.1277
     2.9917   2.9921   2.9924   2.9932   2.9942   2.9950   2.9953   2.9958
     3.1060   3.1064   3.1069   3.1071   3.1118   3.1119   3.1125   3.1128
     3.7171   3.7175   3.7180   3.7189   3.7662   3.7664   3.7670   3.7671
     3.8051   3.8057   3.8059   3.8064   4.1125   4.1133   4.1133   4.1141
     4.4044   4.4056   4.4063   4.4067   4.4106   4.4109   4.4117   4.4130
     4.7273   4.7282   4.7287   4.7299   4.7340   4.7350   4.7356   4.7362
     5.0003   5.0007   5.0007   5.0010   5.0388   5.0389   5.0391   5.0398
     5.0433   5.0439   5.0440   5.0441   6.4991   6.4996   6.4997   6.5002
     7.9319   7.9323   7.9325   7.9330   8.7125   8.7129   8.7136   8.7144
     8.7760   8.7767   8.7770   8.7774   8.9456   8.9458   8.9463   8.9469
     8.9907   8.9909   8.9915   8.9919   9.4089   9.4103   9.4106   9.4115
     9.7339   9.7356

          k =-0.5000 0.5000 0.0000 ( 36332 PWs)   bands (ev):

    -5.6227  -5.6219  -5.5997  -5.5988  -4.9209  -4.9201  -4.8431  -4.8420
    -4.1828  -4.1818  -4.0971  -4.0956  -3.9071  -3.9064  -3.6791  -3.6784
    -3.4772  -3.4755  -3.4754  -3.4747  -3.2206  -3.2186  -3.2186  -3.2181
    -2.9304  -2.9289  -2.6035  -2.6018  -2.2740  -2.2724  -2.1652  -2.1632
    -1.1989  -1.1974  -1.1093  -1.1077  -0.9367  -0.9357  -0.5831  -0.5831
    -0.5828  -0.5798  -0.3915  -0.3892  -0.2578  -0.2565   0.2152   0.2158
     0.2162   0.2188   0.5660   0.5682   0.7265   0.7272   0.8411   0.8422
     1.0649   1.0658   1.1924   1.1934   2.1257   2.1265   2.1275   2.1283
     2.8957   2.8964   2.9895   2.9900   2.9908   2.9914   3.0875   3.0877
     3.0915   3.0926   3.1098   3.1101   3.1105   3.1115   3.1335   3.1341
     3.7501   3.7507   3.7511   3.7518   3.7614   3.7618   3.7656   3.7659
     3.7669   3.7672   3.7732   3.7733   4.1111   4.1120   4.1125   4.1134
     4.3983   4.3992   4.4141   4.4144   4.4147   4.4157   4.4298   4.4306
     4.6549   4.6561   4.6916   4.6926   4.7668   4.7673   4.8066   4.8080
     4.9740   4.9761   4.9773   4.9803   4.9935   4.9941   4.9971   4.9974
     5.1032   5.1036   5.1040   5.1048   6.4993   6.5016   6.5017   6.5039
     7.9357   7.9372   7.9696   7.9711   8.6746   8.6754   8.7094   8.7101
     8.7104   8.7123   8.8405   8.8429   8.8600   8.8616   8.8664   8.8681
     9.0248   9.0252   9.1237   9.1247   9.3631   9.3639   9.5572   9.5584
     9.5590   9.5595

          k =-0.2500-0.2500 0.2500 ( 36381 PWs)   bands (ev):

    -5.9535  -5.4609  -5.4182  -5.4174  -4.9711  -4.9704  -4.8637  -4.4528
    -4.3190  -4.3181  -4.3147  -4.1512  -4.1502  -3.9386  -3.9376  -3.6810
    -3.6798  -3.5848  -3.3086  -3.1664  -3.1176  -3.0704  -3.0443  -3.0431
    -3.0196  -2.6638  -2.5557  -2.5546  -2.4548  -2.4533  -2.2114  -2.0083
    -1.2663  -1.1895  -0.8712  -0.8701  -0.8225  -0.8013  -0.7988  -0.7411
    -0.5873  -0.5231  -0.5226  -0.4726  -0.4652  -0.3663  -0.3313  -0.0147
     0.3186   0.3198   0.3212   0.4086   0.4109   0.6555   1.2379   1.3063
     1.3076   1.6630   1.6639   1.6788   2.3276   2.3659   2.3666   2.3750
     2.3757   2.4294   2.4311   2.4318   2.4333   3.0212   3.0367   3.0501
     3.1159   3.1389   3.1396   3.1483   3.1490   3.1704   3.1771   3.1782
     3.1857   3.5413   3.5467   3.5474   3.5505   3.5520   3.5585   3.8171
     3.8293   3.8476   3.8523   3.8532   3.8545   4.1781   4.2275   4.2298
     4.2309   4.2399   4.2910   4.3499   4.3561   4.3572   4.6247   4.6606
     4.6612   4.6674   4.6681   4.7020   4.7040   4.7058   4.7068   4.9646
     5.0021   5.0583   5.1237   5.3459   5.3470   5.3521   5.3899   5.3904
     5.3936   5.5865   5.5904   5.9438   5.9451   5.9459   6.5011   6.5149
     7.4720   7.6489   7.8060   8.0750   8.0942   8.0961   8.1482   8.5968
     8.5983   8.6031   8.6237   8.6268   8.6802   8.8999   8.9068   8.9414
     8.9501   8.9509   9.1294   9.1748   9.1801   9.1860   9.2189   9.2627
     9.2713   9.2721

          k =-0.2500 0.2500-0.2500 ( 36381 PWs)   bands (ev):

    -5.9586  -5.4708  -5.3988  -5.3980  -4.9493  -4.9340  -4.9331  -4.6052
    -4.3785  -4.3778  -4.1399  -4.0438  -4.0429  -3.8590  -3.8578  -3.7272
    -3.7263  -3.6703  -3.6690  -3.3797  -2.9511  -2.8847  -2.8834  -2.7925
    -2.7915  -2.6507  -2.6372  -2.6361  -2.5137  -2.5127  -2.3922  -2.3910
    -0.9267  -0.9259  -0.8305  -0.8294  -0.7487  -0.7408  -0.7394  -0.6565
    -0.6551  -0.6135  -0.5733  -0.5709  -0.5672  -0.5359  -0.5343   0.2944
     0.3033   0.3043   0.3727   0.3741   0.3944   0.3954   1.2473   1.3192
     1.3214   1.6734   1.7002   1.7014   2.3744   2.3749   2.3763   2.3771
     2.3794   2.3803   2.4315   2.4322   2.4468   3.0322   3.0347   3.0354
     3.1385   3.1393   3.1402   3.1407   3.1468   3.1474   3.1533   3.1695
     3.1706   3.5476   3.5488   3.5500   3.5511   3.5514   3.5517   3.8309
     3.8312   3.8320   3.8510   3.8520   3.8707   4.2245   4.2259   4.2298
     4.2360   4.2381   4.2393   4.3556   4.3575   4.3581   4.6576   4.6590
     4.6620   4.6636   4.6674   4.6685   4.7014   4.7083   4.7088   4.9648
     5.0496   5.0611   5.0616   5.3446   5.3451   5.3481   5.3917   5.3940
     5.3975   5.5895   5.6028   5.9445   5.9450   5.9470   6.5100   6.5125
     7.6071   7.6155   7.6166   8.0454   8.0683   8.0926   8.0935   8.5759
     8.5769   8.5774   8.7786   8.8137   8.8149   8.8850   8.8855   8.8943
     8.9351   8.9361   9.0182   9.1216   9.2339   9.2571   9.2609   9.3322
     9.3330   9.3849

          k = 0.2500-0.2500-0.2500 ( 36381 PWs)   bands (ev):

    -5.9586  -5.4708  -5.3988  -5.3980  -4.9493  -4.9341  -4.9331  -4.6053
    -4.3786  -4.3779  -4.1400  -4.0435  -4.0428  -3.8590  -3.8578  -3.7271
    -3.7262  -3.6703  -3.6690  -3.3793  -2.9514  -2.8851  -2.8839  -2.7925
    -2.7915  -2.6505  -2.6372  -2.6361  -2.5140  -2.5127  -2.3918  -2.3905
    -0.9281  -0.9259  -0.8303  -0.8292  -0.7491  -0.7407  -0.7392  -0.6566
    -0.6552  -0.6145  -0.5712  -0.5708  -0.5668  -0.5359  -0.5344   0.2952
     0.3031   0.3041   0.3728   0.3742   0.3930   0.3954   1.2480   1.3200
     1.3214   1.6729   1.7006   1.7015   2.3740   2.3746   2.3765   2.3773
     2.3795   2.3803   2.4315   2.4321   2.4462   3.0325   3.0353   3.0358
     3.1380   3.1389   3.1397   3.1402   3.1468   3.1474   3.1524   3.1692
     3.1704   3.5471   3.5486   3.5503   3.5508   3.5514   3.5525   3.8303
     3.8310   3.8320   3.8510   3.8520   3.8699   4.2252   4.2261   4.2304
     4.2367   4.2389   4.2397   4.3556   4.3569   4.3580   4.6587   4.6593
     4.6625   4.6638   4.6684   4.6690   4.7014   4.7076   4.7087   4.9657
     5.0494   5.0602   5.0612   5.3437   5.3447   5.3480   5.3938   5.3943
     5.3984   5.5887   5.6031   5.9432   5.9446   5.9468   6.5088   6.5126
     7.6071   7.6149   7.6161   8.0455   8.0680   8.0918   8.0936   8.5753
     8.5763   8.5775   8.7786   8.8141   8.8153   8.8844   8.8855   8.8945
     8.9348   8.9358   9.0183   9.1210   9.2278   9.2288   9.2344   9.2352
     9.2607   9.2618

          k =-0.2500 0.2500 0.5000 ( 36310 PWs)   bands (ev):

    -5.7662  -5.7651  -5.2158  -5.2141  -5.2141  -5.2132  -4.8036  -4.8026
    -4.2377  -4.2362  -4.2361  -4.2354  -3.7713  -3.7695  -3.7693  -3.7687
    -3.4663  -3.4645  -3.1459  -3.1439  -3.1437  -3.1425  -3.1251  -3.1235
    -2.7198  -2.7181  -2.7180  -2.7175  -2.6072  -2.6065  -2.6064  -2.6040
    -0.8112  -0.8090  -0.8087  -0.8085  -0.7012  -0.6998  -0.6907  -0.6904
    -0.6903  -0.6880  -0.2658  -0.2654  -0.2648  -0.2630  -0.1315  -0.1311
    -0.1308  -0.1282   0.2581   0.2593   0.8864   0.8892   0.8893   0.8901
     0.9523   0.9538   2.3001   2.3013   2.3015   2.3020   2.4246   2.4248
     2.4255   2.4272   2.6149   2.6155   2.6160   2.6164   2.7029   2.7033
     2.7043   2.7047   3.2539   3.2546   3.3256   3.3271   3.5520   3.5525
     3.5532   3.5539   3.7607   3.7613   3.7620   3.7627   3.7707   3.7710
     3.7713   3.7723   3.9757   3.9777   3.9780   3.9786   4.0297   4.0311
     4.0836   4.0851   4.2135   4.2145   4.2150   4.2154   4.4853   4.4862
     4.4865   4.4868   4.8270   4.8297   4.8300   4.8302   4.8378   4.8391
     4.8399   4.8400   4.8407   4.8414   5.0728   5.0736   5.8124   5.8140
     5.8823   5.8833   5.8837   5.8850   5.9499   5.9520   6.1920   6.1936
     7.7757   7.7771   8.1504   8.1511   8.1516   8.1529   8.4952   8.4961
     8.4965   8.4980   8.6127   8.6132   8.7603   8.7622   8.8635   8.8658
     8.8660   8.8663   9.1243   9.1249   9.1253   9.1267   9.1458   9.1469
     9.2467   9.2473

          k =-0.5000-0.2500 0.2500 ( 36310 PWs)   bands (ev):

    -5.7550  -5.7438  -5.2819  -5.2604  -5.2386  -5.1943  -4.8283  -4.7451
    -4.3017  -4.1366  -4.0626  -3.9878  -3.9626  -3.8114  -3.7314  -3.6579
    -3.6020  -3.5503  -3.5006  -3.3068  -3.2986  -3.2218  -2.9556  -2.9442
    -2.7618  -2.7591  -2.6721  -2.6497  -2.5914  -2.5605  -2.4373  -2.3993
    -0.9423  -0.9129  -0.7973  -0.7879  -0.7781  -0.7659  -0.7234  -0.7185
    -0.7159  -0.6373  -0.3824  -0.2160  -0.1947  -0.1869  -0.1681  -0.1103
    -0.1073  -0.0856   0.3236   0.3936   0.8102   0.8258   0.8793   0.9324
     0.9460   0.9821   2.2418   2.2906   2.2952   2.2958   2.4039   2.4239
     2.4398   2.4769   2.6116   2.6156   2.6172   2.6178   2.7010   2.7023
     2.7067   2.7149   3.2388   3.2507   3.3372   3.3390   3.5473   3.5516
     3.5526   3.5643   3.7605   3.7627   3.7637   3.7693   3.7710   3.7713
     3.7719   3.7730   3.9792   3.9812   3.9817   3.9828   4.0304   4.0328
     4.0739   4.0764   4.2118   4.2133   4.2142   4.2145   4.4755   4.4822
     4.4842   4.4868   4.8013   4.8149   4.8188   4.8268   4.8337   4.8352
     4.8430   4.8455   4.8476   4.8742   5.0848   5.0938   5.8069   5.8090
     5.8857   5.8864   5.8871   5.8884   5.9473   5.9512   6.1868   6.1887
     7.7549   7.7971   8.1300   8.1355   8.1707   8.2210   8.5673   8.6145
     8.6249   8.6260   8.6397   8.6422   8.6601   8.6761   8.6821   8.6923
     8.6979   8.7776   9.0933   9.1292   9.1566   9.1904   9.2235   9.2590
     9.3415   9.3448

          k = 0.5000-0.2500-0.2500 ( 36310 PWs)   bands (ev):

    -5.7550  -5.7439  -5.2819  -5.2604  -5.2385  -5.1943  -4.8284  -4.7452
    -4.3018  -4.1367  -4.0625  -3.9879  -3.9627  -3.8111  -3.7314  -3.6576
    -3.6021  -3.5499  -3.5006  -3.3066  -3.2991  -3.2216  -2.9554  -2.9445
    -2.7622  -2.7594  -2.6719  -2.6502  -2.5912  -2.5603  -2.4376  -2.3991
    -0.9427  -0.9123  -0.7978  -0.7869  -0.7786  -0.7651  -0.7239  -0.7182
    -0.7145  -0.6362  -0.3829  -0.2164  -0.1957  -0.1880  -0.1686  -0.1106
    -0.1083  -0.0864   0.3238   0.3937   0.8109   0.8265   0.8800   0.9331
     0.9469   0.9829   2.2415   2.2902   2.2949   2.2954   2.4032   2.4233
     2.4391   2.4762   2.6120   2.6160   2.6176   2.6184   2.7008   2.7019
     2.7064   2.7145   3.2392   3.2512   3.3381   3.3398   3.5462   3.5509
     3.5512   3.5632   3.7605   3.7628   3.7638   3.7691   3.7709   3.7714
     3.7718   3.7725   3.9806   3.9809   3.9819   3.9839   4.0296   4.0320
     4.0745   4.0769   4.2118   4.2131   4.2137   4.2146   4.4761   4.4827
     4.4847   4.4874   4.8012   4.8156   4.8195   4.8274   4.8347   4.8359
     4.8436   4.8461   4.8470   4.8741   5.0853   5.0942   5.8054   5.8075
     5.8853   5.8860   5.8874   5.8879   5.9459   5.9497   6.1878   6.1896
     7.7540   7.7962   8.1300   8.1355   8.1706   8.2210   8.5671   8.6145
     8.6243   8.6264   8.6397   8.6421   8.6602   8.6749   8.6821   8.6924
     8.6977   8.7764   9.0931   9.1290   9.1565   9.1899   9.2232   9.2592
     9.3426   9.3450

          k =-0.2500-0.5000 0.2500 ( 36310 PWs)   bands (ev):

    -5.7550  -5.7439  -5.2819  -5.2605  -5.2385  -5.1943  -4.8284  -4.7451
    -4.3018  -4.1366  -4.0625  -3.9877  -3.9627  -3.8114  -3.7314  -3.6579
    -3.6020  -3.5500  -3.5005  -3.3068  -3.2987  -3.2218  -2.9554  -2.9445
    -2.7619  -2.7589  -2.6721  -2.6501  -2.5915  -2.5602  -2.4377  -2.3990
    -0.9427  -0.9122  -0.7979  -0.7870  -0.7780  -0.7651  -0.7234  -0.7186
    -0.7159  -0.6372  -0.3830  -0.2159  -0.1947  -0.1880  -0.1678  -0.1109
    -0.1074  -0.0862   0.3234   0.3939   0.8100   0.8267   0.8795   0.9329
     0.9468   0.9821   2.2414   2.2905   2.2951   2.2958   2.4031   2.4238
     2.4400   2.4762   2.6119   2.6162   2.6169   2.6180   2.7011   2.7014
     2.7070   2.7148   3.2387   3.2513   3.3381   3.3389   3.5466   3.5512
     3.5523   3.5636   3.7607   3.7630   3.7635   3.7690   3.7707   3.7714
     3.7718   3.7729   3.9802   3.9810   3.9817   3.9833   4.0302   4.0322
     4.0739   4.0770   4.2117   4.2132   4.2139   4.2147   4.4762   4.4820
     4.4848   4.4868   4.8017   4.8150   4.8195   4.8267   4.8346   4.8353
     4.8433   4.8458   4.8470   4.8742   5.0854   5.0938   5.8066   5.8079
     5.8850   5.8855   5.8875   5.8891   5.9469   5.9502   6.1868   6.1897
     7.7546   7.7966   8.1299   8.1350   8.1707   8.2215   8.5670   8.6145
     8.6246   8.6258   8.6400   8.6426   8.6601   8.6757   8.6819   8.6919
     8.6983   8.7770   9.0933   9.1286   9.1563   9.1907   9.2231   9.2595
     9.3414   9.3449

          k =-0.2500 0.5000-0.2500 ( 36310 PWs)   bands (ev):

    -5.7550  -5.7439  -5.2819  -5.2604  -5.2386  -5.1943  -4.8283  -4.7452
    -4.3017  -4.1366  -4.0626  -3.9879  -3.9625  -3.8111  -3.7313  -3.6576
    -3.6021  -3.5502  -3.5007  -3.3066  -3.2990  -3.2216  -2.9556  -2.9442
    -2.7622  -2.7594  -2.6718  -2.6498  -2.5911  -2.5606  -2.4373  -2.3993
    -0.9423  -0.9130  -0.7972  -0.7879  -0.7787  -0.7659  -0.7238  -0.7180
    -0.7147  -0.6362  -0.3824  -0.2165  -0.1956  -0.1870  -0.1689  -0.1100
    -0.1082  -0.0858   0.3240   0.3934   0.8111   0.8256   0.8798   0.9326
     0.9462   0.9829   2.2419   2.2903   2.2947   2.2958   2.4041   2.4234
     2.4389   2.4768   2.6117   2.6155   2.6177   2.6182   2.7013   2.7023
     2.7061   2.7146   3.2393   3.2506   3.3376   3.3395   3.5469   3.5512
     3.5516   3.5639   3.7604   3.7621   3.7642   3.7693   3.7711   3.7713
     3.7717   3.7729   3.9802   3.9813   3.9821   3.9826   4.0302   4.0322
     4.0749   4.0760   4.2120   4.2132   4.2135   4.2147   4.4754   4.4829
     4.4841   4.4874   4.8010   4.8158   4.8187   4.8273   4.8349   4.8352
     4.8434   4.8456   4.8472   4.8741   5.0847   5.0943   5.8069   5.8076
     5.8859   5.8861   5.8874   5.8878   5.9469   5.9500   6.1881   6.1884
     7.7543   7.7967   8.1301   8.1360   8.1706   8.2205   8.5674   8.6145
     8.6244   8.6267   8.6397   8.6414   8.6602   8.6753   8.6822   8.6929
     8.6973   8.7770   9.0931   9.1296   9.1567   9.1896   9.2236   9.2588
     9.3422   9.3450

          k =-0.5000 0.2500 0.5000 ( 36276 PWs)   bands (ev):

    -5.5674  -5.5663  -5.5536  -5.5525  -5.0712  -5.0701  -5.0167  -5.0156
    -4.1939  -4.1930  -4.0020  -4.0009  -3.6277  -3.6267  -3.4781  -3.4770
    -3.3430  -3.3413  -3.3218  -3.3200  -3.2315  -3.2302  -3.1811  -3.1795
    -3.0867  -3.0851  -2.9356  -2.9342  -2.6897  -2.6884  -2.4006  -2.3993
    -0.9576  -0.9565  -0.7502  -0.7490  -0.6329  -0.6316  -0.5510  -0.5497
    -0.5210  -0.5195  -0.4885  -0.4869   0.0354   0.0365   0.0375   0.0388
     0.1114   0.1124   0.1720   0.1727   0.3768   0.3785   0.4086   0.4102
     1.6517   1.6533   1.6746   1.6763   2.3332   2.3339   2.3346   2.3353
     2.9443   2.9460   2.9524   2.9530   2.9548   2.9551   2.9571   2.9575
     2.9656   2.9661   2.9893   2.9900   2.9909   2.9921   2.9951   2.9960
     3.2449   3.2461   3.2812   3.2825   3.7611   3.7624   3.7687   3.7702
     4.0251   4.0265   4.0270   4.0272   4.0286   4.0288   4.0292   4.0306
     4.1740   4.1746   4.1774   4.1778   4.4295   4.4310   4.4331   4.4344
     4.4346   4.4359   4.4378   4.4390   4.6491   4.6496   4.6591   4.6593
     5.4824   5.4839   5.4840   5.4852   5.4951   5.4955   5.4986   5.4990
     5.6093   5.6107   5.6118   5.6132   6.3442   6.3447   6.3463   6.3468
     7.9729   7.9736   8.0272   8.0274   8.3285   8.3301   8.3661   8.3677
     8.3713   8.3723   8.4466   8.4479   8.5428   8.5438   8.6460   8.6463
     8.7370   8.7375   8.7662   8.7671   8.8501   8.8514   8.8604   8.8621
     8.9031   8.9043

          k =-0.5000 0.5000 0.2500 ( 36276 PWs)   bands (ev):

    -5.5605  -5.5597  -5.5359  -5.5351  -5.1100  -5.1092  -5.0629  -5.0620
    -3.8776  -3.8768  -3.8564  -3.8555  -3.7992  -3.7979  -3.7171  -3.7163
    -3.4445  -3.4428  -3.4428  -3.4421  -3.2641  -3.2623  -3.2622  -3.2617
    -2.8908  -2.8893  -2.6622  -2.6606  -2.6373  -2.6361  -2.5694  -2.5680
    -0.8382  -0.8369  -0.8299  -0.8289  -0.7866  -0.7854  -0.4692  -0.4691
    -0.4688  -0.4659  -0.3588  -0.3575  -0.2542  -0.2520   0.0933   0.0938
     0.0942   0.0968   0.3028   0.3038   0.3218   0.3228   0.4176   0.4197
     1.6535   1.6544   1.6906   1.6916   2.3249   2.3258   2.3353   2.3363
     2.8688   2.8695   2.9531   2.9538   2.9545   2.9550   2.9761   2.9768
     2.9891   2.9895   2.9901   2.9906   3.0084   3.0097   3.0432   3.0440
     3.2402   3.2411   3.2468   3.2477   3.7662   3.7674   3.7694   3.7707
     4.0098   4.0108   4.0279   4.0288   4.0291   4.0296   4.0505   4.0509
     4.1722   4.1732   4.1735   4.1746   4.4118   4.4128   4.4360   4.4362
     4.4367   4.4376   4.4612   4.4619   4.6441   4.6455   4.6457   4.6474
     5.4754   5.4761   5.4789   5.4797   5.5006   5.5017   5.5022   5.5032
     5.6112   5.6124   5.6158   5.6170   6.3463   6.3477   6.3485   6.3499
     8.0152   8.0168   8.0537   8.0553   8.2299   8.2310   8.3553   8.3560
     8.3561   8.3578   8.5238   8.5252   8.5782   8.5796   8.5866   8.5885
     8.6973   8.6985   8.7638   8.7644   8.8689   8.8695   9.0688   9.0700
     9.0926   9.0933

     the Fermi energy is     7.0387 ev

!    total energy              =    -742.09955255 Ry
     estimated scf accuracy    <          8.8E-11 Ry
     smearing contrib. (-TS)   =      -0.00012144 Ry
     internal energy E=F+TS    =    -742.09943111 Ry

     The total energy is F=E-TS. E is the sum of the following terms:
     one-electron contribution =     176.86526220 Ry
     hartree contribution      =      33.68670877 Ry
     xc contribution           =    -412.27902511 Ry
     ewald contribution        =    -540.37237696 Ry

     convergence has been achieved in  15 iterations

     Forces acting on atoms (cartesian axes, Ry/au):

     atom    1 type  1   force =     0.00401701   -0.00034578    0.02913014
     atom    2 type  1   force =    -0.00000607    0.00000063    0.02510115
     atom    3 type  1   force =    -0.00001233    0.00000056    0.02510112
     atom    4 type  1   force =     0.00000156   -0.00000212    0.02523119
     atom    5 type  1   force =    -0.00001280   -0.00000034    0.02511007
     atom    6 type  1   force =     0.00000102    0.00000127    0.02511718
     atom    7 type  1   force =     0.00012246    0.00000104    0.02511720
     atom    8 type  1   force =    -0.00000591    0.00000036    0.02510912
     atom    9 type  1   force =    -0.00002892   -0.00002907    0.02521513
     atom   10 type  1   force =    -0.00003210    0.00002634    0.02519832
     atom   11 type  1   force =    -0.00008997    0.00008440    0.02525678
     atom   12 type  1   force =    -0.00008279   -0.00008289    0.02526896
     atom   13 type  1   force =    -0.00001038    0.00002430    0.02511186
     atom   14 type  1   force =    -0.00000806   -0.00002125    0.02511498
     atom   15 type  1   force =    -0.00001223   -0.00001717    0.02511896
     atom   16 type  1   force =    -0.00001490    0.00001970    0.02511632
     atom   17 type  2   force =    -0.00011243   -0.00004970   -0.02614283
     atom   18 type  2   force =     0.00000102    0.00000007   -0.02603386
     atom   19 type  2   force =     0.00000744   -0.00000553   -0.02602442
     atom   20 type  2   force =    -0.00003070   -0.00000037   -0.02606296
     atom   21 type  2   force =     0.00000034   -0.00000330   -0.02603629
     atom   22 type  2   force =    -0.00012610    0.00006474   -0.02615859
     atom   23 type  2   force =    -0.00002903   -0.00000154   -0.02606436
     atom   24 type  2   force =     0.00000860    0.00000506   -0.02602589
     atom   25 type  2   force =     0.00009750   -0.00002920   -0.02606410
     atom   26 type  2   force =    -0.00000228    0.00002238   -0.02604197
     atom   27 type  2   force =     0.00014772    0.00008483   -0.02611305
     atom   28 type  2   force =     0.00000290   -0.00001581   -0.02604546
     atom   29 type  2   force =     0.00007626    0.00003062   -0.02606409
     atom   30 type  2   force =    -0.00000242   -0.00002093   -0.02604252
     atom   31 type  2   force =     0.00014397   -0.00009511   -0.02613012
     atom   32 type  2   force =     0.00000412    0.00001668   -0.02604769
     atom   33 type  1   force =    -0.00158477   -0.00130754   -0.02669853
     atom   34 type  1   force =    -0.00000441   -0.00002291   -0.02510827
     atom   35 type  1   force =     0.00000295   -0.00001657   -0.02511450
     atom   36 type  1   force =    -0.00001380   -0.00001296   -0.02518492
     atom   37 type  1   force =     0.00000643   -0.00002410   -0.02512234
     atom   38 type  1   force =    -0.00001236   -0.00001893   -0.02512974
     atom   39 type  1   force =    -0.00007230   -0.00001441   -0.02513430
     atom   40 type  1   force =    -0.00000209   -0.00001556   -0.02511740
     atom   41 type  1   force =     0.00000142    0.00000225   -0.02516971
     atom   42 type  1   force =     0.00003038   -0.00000203   -0.02508752
     atom   43 type  1   force =     0.00001014    0.00000441   -0.02509363
     atom   44 type  1   force =    -0.00027333   -0.00000190   -0.02539395
     atom   45 type  1   force =     0.00001323   -0.00000026   -0.02510216
     atom   46 type  1   force =    -0.00005095   -0.00000226   -0.02511286
     atom   47 type  1   force =    -0.00000013    0.00000272   -0.02511750
     atom   48 type  1   force =     0.00002507   -0.00000545   -0.02510395
     atom   49 type  2   force =    -0.00001154    0.00000928    0.02602150
     atom   50 type  2   force =     0.00000632    0.00002217    0.02602726
     atom   51 type  2   force =    -0.00000144    0.00001475    0.02603195
     atom   52 type  2   force =    -0.00006296    0.00001401    0.02601920
     atom   53 type  2   force =    -0.00000784    0.00001970    0.02604135
     atom   54 type  2   force =    -0.00182077    0.00163888    0.02419414
     atom   55 type  2   force =    -0.00001250    0.00001286    0.02596969
     atom   56 type  2   force =     0.00000486    0.00002051    0.02603474
     atom   57 type  2   force =    -0.00005356    0.00000241    0.02603653
     atom   58 type  2   force =     0.00001336   -0.00000000    0.02604739
     atom   59 type  2   force =     0.00002537    0.00000310    0.02604544
     atom   60 type  2   force =    -0.00000005    0.00000021    0.02603432
     atom   61 type  2   force =     0.00002638   -0.00000069    0.02606451
     atom   62 type  2   force =     0.00000079   -0.00000046    0.02598365
     atom   63 type  2   force =    -0.00020763    0.00001785    0.02586156
     atom   64 type  2   force =     0.00001327   -0.00000196    0.02605773

     Total force =     0.205356     Total SCF correction =     0.000019

     Writing all to output data dir ./results2/phonon_fc.save/ :
     XML data file, charge density, pseudopotentials, collected wavefunctions

     init_run     :    444.54s CPU    448.55s WALL (       1 calls)
     electrons    :  14454.95s CPU  14594.40s WALL (       1 calls)
     forces       :    216.11s CPU    217.40s WALL (       1 calls)

     Called by init_run:
     wfcinit      :    440.73s CPU    444.50s WALL (       1 calls)
     potinit      :      0.45s CPU      0.47s WALL (       1 calls)
     hinit0       :      0.66s CPU      0.67s WALL (       1 calls)

     Called by electrons:
     c_bands      :  13060.36s CPU  13180.22s WALL (      16 calls)
     sum_band     :   1351.52s CPU   1366.45s WALL (      16 calls)
     v_of_rho     :      3.27s CPU      3.36s WALL (      16 calls)
     newd         :     41.52s CPU     45.72s WALL (      16 calls)
     mix_rho      :      0.55s CPU      0.56s WALL (      16 calls)

     Called by c_bands:
     init_us_2    :     51.14s CPU     51.63s WALL (    1224 calls)
     cegterg      :  12967.08s CPU  13085.35s WALL (     576 calls)

     Called by *egterg:
     cdiaghg      :    217.59s CPU    218.77s WALL (    3191 calls)
     h_psi        :   6514.29s CPU   6571.13s WALL (    3263 calls)
     s_psi        :   2811.92s CPU   2833.58s WALL (    3263 calls)
     g_psi        :      4.08s CPU      4.13s WALL (    2651 calls)

     Called by h_psi:
     h_psi:calbec :   2915.19s CPU   2936.63s WALL (    3263 calls)
     vloc_psi     :    777.67s CPU    786.16s WALL (    3263 calls)
     add_vuspsi   :   2816.11s CPU   2838.34s WALL (    3263 calls)

     General routines
     calbec       :   4204.09s CPU   4234.28s WALL (    3983 calls)
     fft          :      2.58s CPU      2.65s WALL (     218 calls)
     ffts         :      0.29s CPU      0.29s WALL (      32 calls)
     fftw         :    683.45s CPU    690.45s WALL (  567644 calls)
     interpolate  :      0.44s CPU      0.44s WALL (      16 calls)

     Parallel routines

     PWSCF        :      4h11m CPU      4h15m WALL


   This run was terminated on:  20:22:53  25Mar2026            

=------------------------------------------------------------------------------=
   JOB DONE.
=------------------------------------------------------------------------------=
