
     Program PWSCF v.7.3.1 starts on 25Mar2026 at 16: 7:44 

     This program is part of the open-source Quantum ESPRESSO suite
     for quantum simulation of materials; please cite
         "P. Giannozzi et al., J. Phys.:Condens. Matter 21 395502 (2009);
         "P. Giannozzi et al., J. Phys.:Condens. Matter 29 465901 (2017);
         "P. Giannozzi et al., J. Chem. Phys. 152 154105 (2020);
          URL http://www.quantum-espresso.org", 
     in publications or presentations arising from this work. More details at
     http://www.quantum-espresso.org/quote

     Parallel version (MPI), running on     9 processors

     MPI processes distributed on     1 nodes
     14536 MiB available memory on the printing compute node when the environment starts

     Waiting for input...
     Reading input from standard input

     Current dimensions of program PWSCF are:
     Max number of different atomic species (ntypx) = 10
     Max number of k-points (npk) =  40000
     Max angular momentum in pseudopotentials (lmaxx) =  4

     R & G space division:  proc/nbgrp/npool/nimage =       9
     Subspace diagonalization in iterative solution of the eigenvalue problem:
     one sub-group per band group will be used
     custom distributed-memory algorithm (size of sub-group:  2*  2 procs)


     Parallelization info
     --------------------
     sticks:   dense  smooth     PW     G-vecs:    dense   smooth      PW
     Min        1178     588    160                91396    32308    4572
     Max        1179     589    162                91401    32313    4573
     Sum       10605    5297   1449               822577   290795   41155

     Using Slab Decomposition



     bravais-lattice index     =            0
     lattice parameter (alat)  =      20.4158  a.u.
     unit-cell volume          =    8509.4617 (a.u.)^3
     number of atoms/cell      =           64
     number of atomic types    =            2
     number of electrons       =       256.00
     number of Kohn-Sham states=          154
     kinetic-energy cutoff     =      40.0000  Ry
     charge density cutoff     =     320.0000  Ry
     scf convergence threshold =      1.0E-10
     mixing beta               =       0.7000
     number of iterations used =            8  plain     mixing
     Exchange-correlation= PBE
                           (   1   4   3   4   0   0   0)

     celldm(1)=  20.415845  celldm(2)=   0.000000  celldm(3)=   0.000000
     celldm(4)=   0.000000  celldm(5)=   0.000000  celldm(6)=   0.000000

     crystal axes: (cart. coord. in units of alat)
               a(1) = (   1.000000   0.000000   0.000000 )  
               a(2) = (   0.000000   1.000000   0.000000 )  
               a(3) = (   0.000000   0.000000   1.000000 )  

     reciprocal axes: (cart. coord. in units 2 pi/alat)
               b(1) = (  1.000000  0.000000  0.000000 )  
               b(2) = (  0.000000  1.000000  0.000000 )  
               b(3) = (  0.000000  0.000000  1.000000 )  


     PseudoPot. # 1 for Si read from file:
     ./pseudo/Si.pbe-n-rrkjus_psl.1.0.0.UPF
     MD5 check sum: fa25574f73a70a4139f2adfbefec430c
     Pseudo is Ultrasoft + core correction, Zval =  4.0
     Generated using &quot;atomic&quot; code by A. Dal Corso  v.6.3
     Using radial grid of 1141 points,  6 beta functions with: 
                l(1) =   0
                l(2) =   0
                l(3) =   1
                l(4) =   1
                l(5) =   2
                l(6) =   2
     Q(r) pseudized with 0 coefficients 


     PseudoPot. # 2 for Ge read from file:
     ./pseudo/Ge.pbe-n-rrkjus_psl.1.0.0.UPF
     MD5 check sum: a23a7f3f7456476e534e54484b27d8e8
     Pseudo is Ultrasoft + core correction, Zval =  4.0
     Generated using &quot;atomic&quot; code by A. Dal Corso  v.6.3
     Using radial grid of 1207 points,  4 beta functions with: 
                l(1) =   0
                l(2) =   0
                l(3) =   1
                l(4) =   1
     Q(r) pseudized with 0 coefficients 


     atomic species   valence    mass     pseudopotential
     Si                4.00    28.08500     Si( 1.00)
     Ge                4.00    72.63000     Ge( 1.00)

     No symmetry found



   Cartesian axes

     site n.     atom                  positions (alat units)
         1        Si     tau(   1) = (   0.0000000   0.0000000   0.0000000  )
         2        Si     tau(   2) = (   0.5000000   0.0000000   0.0000000  )
         3        Si     tau(   3) = (   0.0000000   0.5000000   0.0000000  )
         4        Si     tau(   4) = (   0.5000000   0.5000000   0.0000000  )
         5        Si     tau(   5) = (   0.0000000   0.0000000   0.5000000  )
         6        Si     tau(   6) = (   0.5000000   0.0000000   0.5000000  )
         7        Si     tau(   7) = (   0.0000000   0.5000000   0.5000000  )
         8        Si     tau(   8) = (   0.5000000   0.5000000   0.5000000  )
         9        Si     tau(   9) = (   0.2500000   0.2500000   0.0000000  )
        10        Si     tau(  10) = (   0.7500000   0.2500000   0.0000000  )
        11        Si     tau(  11) = (   0.2500000   0.7500000   0.0000000  )
        12        Si     tau(  12) = (   0.7500000   0.7500000   0.0000000  )
        13        Si     tau(  13) = (   0.2500000   0.2500000   0.5000000  )
        14        Si     tau(  14) = (   0.7500000   0.2500000   0.5000000  )
        15        Si     tau(  15) = (   0.2500000   0.7500000   0.5000000  )
        16        Si     tau(  16) = (   0.7500000   0.7500000   0.5000000  )
        17        Ge     tau(  17) = (   0.2506545   0.0000000   0.2506545  )
        18        Ge     tau(  18) = (   0.7500000   0.0000000   0.2500000  )
        19        Ge     tau(  19) = (   0.2500000   0.5000000   0.2500000  )
        20        Ge     tau(  20) = (   0.7500000   0.5000000   0.2500000  )
        21        Ge     tau(  21) = (   0.2500000   0.0000000   0.7500000  )
        22        Ge     tau(  22) = (   0.7500000   0.0000000   0.7500000  )
        23        Ge     tau(  23) = (   0.2500000   0.5000000   0.7500000  )
        24        Ge     tau(  24) = (   0.7500000   0.5000000   0.7500000  )
        25        Ge     tau(  25) = (   0.0000000   0.2500000   0.2500000  )
        26        Ge     tau(  26) = (   0.5000000   0.2500000   0.2500000  )
        27        Ge     tau(  27) = (   0.0000000   0.7500000   0.2500000  )
        28        Ge     tau(  28) = (   0.5000000   0.7500000   0.2500000  )
        29        Ge     tau(  29) = (   0.0000000   0.2500000   0.7500000  )
        30        Ge     tau(  30) = (   0.5000000   0.2500000   0.7500000  )
        31        Ge     tau(  31) = (   0.0000000   0.7500000   0.7500000  )
        32        Ge     tau(  32) = (   0.5000000   0.7500000   0.7500000  )
        33        Si     tau(  33) = (   0.1250000   0.1250000   0.1250000  )
        34        Si     tau(  34) = (   0.6250000   0.1250000   0.1250000  )
        35        Si     tau(  35) = (   0.1250000   0.6250000   0.1250000  )
        36        Si     tau(  36) = (   0.6250000   0.6250000   0.1250000  )
        37        Si     tau(  37) = (   0.1250000   0.1250000   0.6250000  )
        38        Si     tau(  38) = (   0.6250000   0.1250000   0.6250000  )
        39        Si     tau(  39) = (   0.1250000   0.6250000   0.6250000  )
        40        Si     tau(  40) = (   0.6250000   0.6250000   0.6250000  )
        41        Si     tau(  41) = (   0.3750000   0.3750000   0.1250000  )
        42        Si     tau(  42) = (   0.8750000   0.3750000   0.1250000  )
        43        Si     tau(  43) = (   0.3750000   0.8750000   0.1250000  )
        44        Si     tau(  44) = (   0.8750000   0.8750000   0.1250000  )
        45        Si     tau(  45) = (   0.3750000   0.3750000   0.6250000  )
        46        Si     tau(  46) = (   0.8750000   0.3750000   0.6250000  )
        47        Si     tau(  47) = (   0.3750000   0.8750000   0.6250000  )
        48        Si     tau(  48) = (   0.8750000   0.8750000   0.6250000  )
        49        Ge     tau(  49) = (   0.3750000   0.1250000   0.3750000  )
        50        Ge     tau(  50) = (   0.8750000   0.1250000   0.3750000  )
        51        Ge     tau(  51) = (   0.3750000   0.6250000   0.3750000  )
        52        Ge     tau(  52) = (   0.8750000   0.6250000   0.3750000  )
        53        Ge     tau(  53) = (   0.3750000   0.1250000   0.8750000  )
        54        Ge     tau(  54) = (   0.8750000   0.1250000   0.8750000  )
        55        Ge     tau(  55) = (   0.3750000   0.6250000   0.8750000  )
        56        Ge     tau(  56) = (   0.8750000   0.6250000   0.8750000  )
        57        Ge     tau(  57) = (   0.1250000   0.3750000   0.3750000  )
        58        Ge     tau(  58) = (   0.6250000   0.3750000   0.3750000  )
        59        Ge     tau(  59) = (   0.1250000   0.8750000   0.3750000  )
        60        Ge     tau(  60) = (   0.6250000   0.8750000   0.3750000  )
        61        Ge     tau(  61) = (   0.1250000   0.3750000   0.8750000  )
        62        Ge     tau(  62) = (   0.6250000   0.3750000   0.8750000  )
        63        Ge     tau(  63) = (   0.1250000   0.8750000   0.8750000  )
        64        Ge     tau(  64) = (   0.6250000   0.8750000   0.8750000  )

     number of k points=    36  Gaussian smearing, width (Ry)=  0.0100
                       cart. coord. in units 2pi/alat
        k(    1) = (   0.0000000   0.0000000   0.0000000), wk =   0.0312500
        k(    2) = (   0.0000000   0.0000000   0.2500000), wk =   0.0625000
        k(    3) = (   0.0000000   0.0000000  -0.5000000), wk =   0.0312500
        k(    4) = (   0.0000000   0.2500000   0.2500000), wk =   0.0625000
        k(    5) = (   0.0000000   0.2500000  -0.5000000), wk =   0.0625000
        k(    6) = (   0.0000000  -0.5000000  -0.5000000), wk =   0.0312500
        k(    7) = (   0.2500000   0.2500000   0.2500000), wk =   0.0625000
        k(    8) = (   0.2500000   0.2500000  -0.5000000), wk =   0.0625000
        k(    9) = (   0.2500000  -0.5000000  -0.5000000), wk =   0.0625000
        k(   10) = (  -0.5000000  -0.5000000  -0.5000000), wk =   0.0312500
        k(   11) = (   0.2500000   0.0000000   0.0000000), wk =   0.0625000
        k(   12) = (   0.0000000   0.2500000   0.0000000), wk =   0.0625000
        k(   13) = (  -0.5000000   0.0000000   0.0000000), wk =   0.0312500
        k(   14) = (   0.0000000  -0.5000000   0.0000000), wk =   0.0312500
        k(   15) = (   0.0000000  -0.2500000   0.2500000), wk =   0.0625000
        k(   16) = (   0.2500000   0.0000000  -0.2500000), wk =   0.0625000
        k(   17) = (  -0.2500000   0.0000000  -0.2500000), wk =   0.0625000
        k(   18) = (   0.2500000  -0.2500000   0.0000000), wk =   0.0625000
        k(   19) = (  -0.2500000  -0.2500000   0.0000000), wk =   0.0625000
        k(   20) = (   0.2500000   0.0000000   0.5000000), wk =   0.0625000
        k(   21) = (  -0.5000000  -0.2500000   0.0000000), wk =   0.0625000
        k(   22) = (   0.0000000  -0.5000000   0.2500000), wk =   0.0625000
        k(   23) = (   0.2500000  -0.5000000   0.0000000), wk =   0.0625000
        k(   24) = (  -0.5000000   0.0000000   0.2500000), wk =   0.0625000
        k(   25) = (  -0.5000000   0.0000000   0.5000000), wk =   0.0312500
        k(   26) = (  -0.5000000   0.5000000   0.0000000), wk =   0.0312500
        k(   27) = (  -0.2500000  -0.2500000   0.2500000), wk =   0.0625000
        k(   28) = (  -0.2500000   0.2500000  -0.2500000), wk =   0.0625000
        k(   29) = (   0.2500000  -0.2500000  -0.2500000), wk =   0.0625000
        k(   30) = (  -0.2500000   0.2500000   0.5000000), wk =   0.0625000
        k(   31) = (  -0.5000000  -0.2500000   0.2500000), wk =   0.0625000
        k(   32) = (   0.5000000  -0.2500000  -0.2500000), wk =   0.0625000
        k(   33) = (  -0.2500000  -0.5000000   0.2500000), wk =   0.0625000
        k(   34) = (  -0.2500000   0.5000000  -0.2500000), wk =   0.0625000
        k(   35) = (  -0.5000000   0.2500000   0.5000000), wk =   0.0625000
        k(   36) = (  -0.5000000   0.5000000   0.2500000), wk =   0.0625000

     Dense  grid:   822577 G-vectors     FFT dimensions: ( 120, 120, 120)

     Smooth grid:   290795 G-vectors     FFT dimensions: (  90,  90,  90)

     Estimated max dynamical RAM per process >     850.83 MB

     Estimated total dynamical RAM >       7.48 GB

     Initial potential from superposition of free atoms

     starting charge     255.9576, renormalised to     256.0000
     Starting wfcs are  256 randomized atomic wfcs

     total cpu time spent up to now is      439.1 secs

     per-process dynamical memory:   507.7 Mb

     Self-consistent Calculation

     iteration #  1     ecut=    40.00 Ry     beta= 0.70
     Davidson diagonalization with overlap
     ethr =  1.00E-02,  avg # of iterations =  3.2

     Threshold (ethr) on eigenvalues was too large:
     Diagonalizing with lowered threshold

     Davidson diagonalization with overlap
     ethr =  5.56E-04,  avg # of iterations =  2.7

     total cpu time spent up to now is     2134.5 secs

     total energy              =    -742.01628075 Ry
     estimated scf accuracy    <       1.52713348 Ry

     iteration #  2     ecut=    40.00 Ry     beta= 0.70
     Davidson diagonalization with overlap
     ethr =  5.97E-04,  avg # of iterations =  1.4

     total cpu time spent up to now is     2797.7 secs

     total energy              =    -742.08472431 Ry
     estimated scf accuracy    <       0.07730273 Ry

     iteration #  3     ecut=    40.00 Ry     beta= 0.70
     Davidson diagonalization with overlap
     c_bands:  1 eigenvalues not converged
     c_bands:  1 eigenvalues not converged
     c_bands:  4 eigenvalues not converged
     c_bands:  2 eigenvalues not converged
     c_bands:  3 eigenvalues not converged
     c_bands:  2 eigenvalues not converged
     c_bands:  3 eigenvalues not converged
     ethr =  3.02E-05,  avg # of iterations = 14.8

     total cpu time spent up to now is     4000.7 secs

     total energy              =    -742.09684611 Ry
     estimated scf accuracy    <       0.00750145 Ry

     iteration #  4     ecut=    40.00 Ry     beta= 0.70
     Davidson diagonalization with overlap
     c_bands:  3 eigenvalues not converged
     c_bands:  2 eigenvalues not converged
     c_bands:  2 eigenvalues not converged
     c_bands:  1 eigenvalues not converged
     c_bands:  2 eigenvalues not converged
     c_bands:  2 eigenvalues not converged
     c_bands:  1 eigenvalues not converged
     c_bands:  3 eigenvalues not converged
     c_bands:  3 eigenvalues not converged
     c_bands:  3 eigenvalues not converged
     ethr =  2.93E-06,  avg # of iterations = 13.4

     total cpu time spent up to now is     5172.6 secs

     total energy              =    -742.09920777 Ry
     estimated scf accuracy    <       0.00136128 Ry

     iteration #  5     ecut=    40.00 Ry     beta= 0.70
     Davidson diagonalization with overlap
     c_bands:  1 eigenvalues not converged
     c_bands:  2 eigenvalues not converged
     ethr =  5.32E-07,  avg # of iterations =  6.7

     total cpu time spent up to now is     6108.1 secs

     total energy              =    -742.09950773 Ry
     estimated scf accuracy    <       0.00009497 Ry

     iteration #  6     ecut=    40.00 Ry     beta= 0.70
     Davidson diagonalization with overlap
     ethr =  3.71E-08,  avg # of iterations =  3.9

     total cpu time spent up to now is     7006.9 secs

     total energy              =    -742.09952860 Ry
     estimated scf accuracy    <       0.00004222 Ry

     iteration #  7     ecut=    40.00 Ry     beta= 0.70
     Davidson diagonalization with overlap
     ethr =  1.65E-08,  avg # of iterations =  2.0

     total cpu time spent up to now is     7824.9 secs

     total energy              =    -742.09953504 Ry
     estimated scf accuracy    <       0.00000542 Ry

     iteration #  8     ecut=    40.00 Ry     beta= 0.70
     Davidson diagonalization with overlap
     ethr =  2.12E-09,  avg # of iterations =  3.3

     total cpu time spent up to now is     8703.6 secs

     total energy              =    -742.09953665 Ry
     estimated scf accuracy    <       0.00000035 Ry

     iteration #  9     ecut=    40.00 Ry     beta= 0.70
     Davidson diagonalization with overlap
     ethr =  1.37E-10,  avg # of iterations =  4.1

     total cpu time spent up to now is     9751.4 secs

     total energy              =    -742.09953671 Ry
     estimated scf accuracy    <       0.00000030 Ry

     iteration # 10     ecut=    40.00 Ry     beta= 0.70
     Davidson diagonalization with overlap
     ethr =  1.18E-10,  avg # of iterations =  2.3

     total cpu time spent up to now is    10558.4 secs

     total energy              =    -742.09953676 Ry
     estimated scf accuracy    <       0.00000012 Ry

     iteration # 11     ecut=    40.00 Ry     beta= 0.70
     Davidson diagonalization with overlap
     ethr =  4.55E-11,  avg # of iterations =  2.4

     total cpu time spent up to now is    11379.3 secs

     total energy              =    -742.09953678 Ry
     estimated scf accuracy    <       0.00000001 Ry

     iteration # 12     ecut=    40.00 Ry     beta= 0.70
     Davidson diagonalization with overlap
     ethr =  4.30E-12,  avg # of iterations =  4.1

     total cpu time spent up to now is    12291.2 secs

     total energy              =    -742.09953678 Ry
     estimated scf accuracy    <          2.9E-09 Ry

     iteration # 13     ecut=    40.00 Ry     beta= 0.70
     Davidson diagonalization with overlap
     ethr =  1.14E-12,  avg # of iterations =  2.9

     total cpu time spent up to now is    13152.6 secs

     total energy              =    -742.09953678 Ry
     estimated scf accuracy    <          1.8E-09 Ry

     iteration # 14     ecut=    40.00 Ry     beta= 0.70
     Davidson diagonalization with overlap
     ethr =  7.12E-13,  avg # of iterations =  2.0

     total cpu time spent up to now is    13936.6 secs

     total energy              =    -742.09953678 Ry
     estimated scf accuracy    <          2.2E-10 Ry

     iteration # 15     ecut=    40.00 Ry     beta= 0.70
     Davidson diagonalization with overlap
     ethr =  1.00E-13,  avg # of iterations =  2.4

     total cpu time spent up to now is    14794.5 secs

     End of self-consistent calculation

          k = 0.0000 0.0000 0.0000 ( 36377 PWs)   bands (ev):

    -6.1616  -5.3673  -5.0582  -5.0562  -5.0562  -5.0552  -4.6247  -4.4930
    -4.3846  -4.3813  -4.3812  -4.3806  -4.2584  -4.0342  -4.0327  -3.7626
    -3.7611  -3.6402  -3.6400  -3.6399  -3.6377  -3.4916  -3.1474  -2.2485
    -2.2465  -2.1097  -2.1077  -1.8122  -1.7313  -1.6758  -1.6751  -1.6749
    -1.6720  -1.5625  -1.5603  -1.5602  -1.5595  -1.3417  -1.3409  -1.1626
    -1.1617  -1.0063  -0.7567  -0.7554  -0.6174   0.3221   0.4847   0.4864
     0.4866   0.4874   0.7395   0.7408   0.9374   0.9383   0.9386   0.9395
     1.0698   2.5051   2.5763   2.5765   2.6032   2.6038   2.6038   2.6043
     2.6049   2.6054   2.6054   2.6059   2.6334   2.6342   2.6845   2.6860
     2.6866   2.6869   2.6871   2.6961   2.6970   2.7143   2.7155   2.7159
     2.7163   2.7172   2.8108   2.8121   2.8121   2.8137   3.0726   3.6367
     3.6371   3.6439   3.6453   3.6529   3.6535   4.6247   4.6741   4.7097
     4.7112   4.7117   4.7117   4.7119   4.7120   4.7124   4.7140   4.7491
     4.8004   5.2552   5.3055   5.3063   5.3065   5.3074   5.3239   5.3257
     5.3390   5.3391   5.3402   5.3418   5.3602   5.3869   5.3955   5.4543
     5.4551   5.4593   5.4614   5.5272   5.5610   6.8182   6.8536   6.8616
     7.2826   7.2837   7.3840   7.4937   7.5784   7.6143   7.6157   7.6545
     7.8444   7.8455   7.8456   7.8469   8.0210   8.0214   8.0439   8.4648
     9.0039   9.0425   9.0429   9.0432   9.0439   9.2274   9.2289   9.4268
     9.4342   9.4402

          k = 0.0000 0.0000 0.2500 ( 36317 PWs)   bands (ev):

    -6.0949  -5.5976  -4.9985  -4.9965  -4.9965  -4.9955  -4.5670  -4.5644
    -4.5644  -4.5636  -4.4625  -4.2975  -4.2630  -3.9998  -3.9983  -3.8089
    -3.8074  -3.4501  -3.3627  -3.3622  -3.3621  -3.3604  -3.2094  -2.7284
    -2.2306  -2.2281  -2.2280  -2.2279  -2.2278  -2.2255  -2.1313  -2.1293
    -1.3177  -1.3169  -1.1913  -1.1904  -1.0343  -1.0331  -1.0330  -1.0318
    -0.8573  -0.7229  -0.5941  -0.5929  -0.4346   0.0438   0.0725   0.0738
     0.0740   0.0753   0.4046   0.4058   0.6729   1.3816   1.3829   1.3830
     1.3844   1.5526   2.2704   2.2707   2.2710   2.2715   2.3570   2.3574
     2.3578   2.3581   2.5616   2.5626   2.5627   2.5642   2.7012   2.7016
     2.7561   2.7569   3.1212   3.1470   3.1480   3.1825   3.1868   3.1877
     3.1878   3.1885   3.2030   3.2035   3.2038   3.2045   3.4452   3.4459
     3.4540   3.4545   3.7119   3.7135   4.0332   4.2459   4.2512   4.4151
     4.4160   4.4161   4.4171   4.7581   4.7592   4.7592   4.7603   4.8847
     4.8853   4.8855   4.8861   4.9714   4.9756   4.9765   4.9774   5.2698
     5.2808   5.2883   5.3426   5.3439   5.3446   5.4105   5.4306   5.4313
     5.4319   5.4326   5.4383   5.4404   5.5335   6.2765   6.5441   6.5508
     7.2642   7.4677   7.6860   7.6872   7.7955   7.9769   7.9782   8.1114
     8.2752   8.2760   8.2765   8.2775   8.3289   8.4355   8.4361   8.7402
     9.0262   9.1144   9.1626   9.1632   9.1633   9.1643   9.2173   9.2187
     9.3009   9.3692

          k = 0.0000 0.0000-0.5000 ( 36434 PWs)   bands (ev):

    -5.8995  -5.8983  -4.8276  -4.8232  -4.8231  -4.8229  -4.8228  -4.8227
    -4.8226  -4.8207  -4.3852  -4.3833  -3.9109  -3.9095  -3.9094  -3.9078
    -3.5709  -3.5692  -3.3399  -3.3390  -2.8315  -2.8294  -2.8293  -2.8291
    -2.8291  -2.8289  -2.8288  -2.8251  -2.1831  -2.1801  -2.1801  -2.1791
    -1.2570  -1.2568  -1.2566  -1.2551  -0.4794  -0.4766  -0.4765  -0.4763
    -0.4761  -0.4759  -0.4759  -0.4736  -0.4603  -0.4580  -0.1608  -0.1587
    -0.1585  -0.1579   0.0451   0.0465   0.3941   0.3952   1.9880   1.9903
     1.9910   1.9913   1.9914   1.9915   1.9917   1.9942   2.2153   2.2159
     2.2162   2.2165   2.2165   2.2173   2.2179   2.2183   3.0356   3.0362
     3.0365   3.0367   3.0770   3.0775   3.0779   3.0786   3.8094   3.8102
     3.8110   3.8115   3.8116   3.8120   3.8125   3.8132   3.9137   3.9149
     3.9161   3.9174   3.9567   3.9572   3.9580   3.9583   3.9583   3.9588
     3.9598   3.9601   3.9999   4.0008   4.0482   4.0490   4.0495   4.0501
     4.0966   4.0978   5.2056   5.2067   5.2076   5.2080   5.2086   5.2088
     5.2088   5.2090   5.2097   5.2114   5.3059   5.3065   5.3889   5.3895
     5.3896   5.3928   5.4686   5.4716   5.9217   5.9238   5.9273   5.9295
     7.2925   7.2935   8.3061   8.3067   8.6872   8.6878   8.6886   8.6898
     8.8867   8.8879   8.8996   8.9010   8.9013   8.9019   8.9409   8.9421
     9.0171   9.0177   9.0306   9.0309   9.0312   9.0327   9.2548   9.2554
     9.2559   9.2561

          k = 0.0000 0.2500 0.2500 ( 36395 PWs)   bands (ev):

    -6.0252  -5.5314  -5.4728  -5.0089  -4.9541  -4.9210  -4.5927  -4.5501
    -4.4882  -4.4137  -4.3968  -4.3517  -4.2032  -4.0790  -4.0153  -3.7410
    -3.5780  -3.5046  -3.3945  -3.3111  -3.2398  -3.2143  -2.9153  -2.9119
    -2.7195  -2.6884  -2.4902  -2.4094  -2.3890  -2.0698  -2.0277  -1.9485
    -1.5407  -1.2694  -1.2384  -0.9223  -0.8690  -0.8484  -0.8174  -0.7316
    -0.7182  -0.6487  -0.5779  -0.4198  -0.2356  -0.2020  -0.1900  -0.1659
    -0.1631  -0.0997   0.5842   0.6820   0.9909   0.9951   1.0236   1.0356
     1.4169   1.4863   2.0817   2.1162   2.1968   2.2481   2.2504   2.2529
     2.3073   2.3677   2.5457   2.5499   2.7357   2.7364   2.7402   2.7423
     2.8108   2.8148   2.9351   3.1447   3.1467   3.4091   3.4104   3.4398
     3.4418   3.4770   3.4780   3.5730   3.5739   3.6107   3.6144   3.6505
     3.6527   3.6546   3.6560   3.7365   3.7657   3.9687   3.9694   4.2938
     4.2957   4.3957   4.4011   4.5548   4.5591   4.6049   4.6081   4.6568
     4.7999   4.8007   4.8028   4.8071   4.8075   4.8089   4.9781   4.9817
     5.1165   5.1413   5.2046   5.2099   5.3225   5.3517   5.4226   5.4238
     5.4264   5.4281   5.5719   5.6005   5.6056   5.9907   6.2403   6.7699
     7.4928   7.6774   7.7564   7.8946   7.9325   8.1332   8.1545   8.3238
     8.4858   8.4921   8.4980   8.5240   8.6922   8.7186   8.7478   8.9218
     9.0810   9.0949   9.1253   9.1539   9.1886   9.2241   9.2775   9.4024
     9.4238   9.5225

          k = 0.0000 0.2500-0.5000 ( 36408 PWs)   bands (ev):

    -5.8310  -5.8298  -5.2889  -5.2878  -4.7895  -4.7882  -4.7486  -4.7477
    -4.4842  -4.4825  -4.2756  -4.2747  -4.2411  -4.2401  -3.5190  -3.5175
    -3.5115  -3.5104  -3.2138  -3.2130  -3.1291  -3.1275  -2.9257  -2.9243
    -2.8488  -2.8475  -2.8249  -2.8239  -2.5057  -2.5042  -1.9821  -1.9812
    -1.4177  -1.4165  -0.8390  -0.8374  -0.6133  -0.6117  -0.5992  -0.5981
    -0.5818  -0.5806  -0.5505  -0.5496  -0.4998  -0.4986  -0.1263  -0.1247
     0.3362   0.3374   0.3538   0.3551   0.3757   0.3772   1.1330   1.1344
     1.6256   1.6268   1.6474   1.6484   2.0354   2.0360   2.4493   2.4503
     2.4632   2.4641   2.4863   2.4871   2.5708   2.5717   2.8851   2.8865
     2.9967   2.9970   3.3099   3.3104   3.3890   3.3893   3.5471   3.5482
     3.5495   3.5506   3.6502   3.6508   3.6874   3.6883   3.7955   3.7968
     3.8519   3.8527   4.0504   4.0513   4.0639   4.0644   4.1424   4.1435
     4.1906   4.1923   4.2024   4.2037   4.3637   4.3641   4.4179   4.4190
     4.4899   4.4901   4.4928   4.4931   4.6205   4.6222   4.9366   4.9378
     4.9491   4.9506   5.1429   5.1433   5.1439   5.1443   5.3857   5.3873
     5.3944   5.3964   5.6201   5.6205   6.0012   6.0029   6.3420   6.3439
     7.7115   7.7124   8.0641   8.0653   8.5200   8.5212   8.6209   8.6216
     8.7089   8.7093   8.9788   8.9793   9.0029   9.0035   9.0451   9.0454
     9.0657   9.0665   9.1070   9.1078   9.2620   9.2626   9.2995   9.3009
     9.3030   9.3045

          k = 0.0000-0.5000-0.5000 ( 36332 PWs)   bands (ev):

    -5.6272  -5.6257  -5.6256  -5.6251  -4.6626  -4.6596  -4.6594  -4.6587
    -4.5643  -4.5624  -4.5622  -4.5608  -3.5609  -3.5592  -3.5590  -3.5587
    -3.3677  -3.3665  -3.3664  -3.3646  -3.1582  -3.1574  -3.1572  -3.1553
    -2.9908  -2.9899  -2.9896  -2.9884  -2.2013  -2.2000  -2.1998  -2.1979
    -1.1721  -1.1707  -1.1705  -1.1691  -0.6914  -0.6912  -0.6909  -0.6879
    -0.6248  -0.6224  -0.6219  -0.6217   0.1586   0.1599   0.1600   0.1613
     0.2524   0.2531   0.2534   0.2546   0.9792   0.9795   0.9800   0.9816
     0.9871   0.9885   0.9891   0.9892   2.1264   2.1271   2.1272   2.1279
     2.9910   2.9918   2.9925   2.9933   2.9942   2.9948   2.9955   2.9964
     3.1060   3.1065   3.1066   3.1074   3.1118   3.1120   3.1125   3.1128
     3.7167   3.7176   3.7178   3.7192   3.7662   3.7663   3.7670   3.7672
     3.8039   3.8057   3.8059   3.8078   4.1121   4.1131   4.1134   4.1145
     4.4057   4.4062   4.4067   4.4077   4.4097   4.4106   4.4111   4.4116
     4.7263   4.7277   4.7279   4.7287   4.7350   4.7359   4.7359   4.7376
     5.0003   5.0007   5.0008   5.0012   5.0369   5.0388   5.0395   5.0399
     5.0431   5.0435   5.0442   5.0462   6.4975   6.4995   6.4998   6.5019
     7.9312   7.9322   7.9324   7.9338   8.7124   8.7132   8.7133   8.7140
     8.7762   8.7767   8.7769   8.7773   8.9452   8.9457   8.9459   8.9468
     8.9906   8.9913   8.9917   8.9924   9.4099   9.4101   9.4106   9.4110
     9.7346   9.7354

          k = 0.2500 0.2500 0.2500 ( 36381 PWs)   bands (ev):

    -5.9535  -5.4610  -5.4185  -5.4173  -4.9717  -4.9702  -4.8636  -4.4527
    -4.3191  -4.3180  -4.3151  -4.1516  -4.1502  -3.9387  -3.9374  -3.6808
    -3.6801  -3.5843  -3.3089  -3.1667  -3.1169  -3.0708  -3.0437  -3.0427
    -3.0199  -2.6636  -2.5550  -2.5541  -2.4548  -2.4541  -2.2116  -2.0085
    -1.2658  -1.1891  -0.8704  -0.8694  -0.8212  -0.8015  -0.8007  -0.7413
    -0.5884  -0.5252  -0.5226  -0.4740  -0.4645  -0.3652  -0.3309  -0.0133
     0.3191   0.3199   0.3208   0.4088   0.4093   0.6568   1.2376   1.3052
     1.3072   1.6635   1.6646   1.6776   2.3271   2.3663   2.3672   2.3750
     2.3759   2.4287   2.4315   2.4321   2.4332   3.0206   3.0360   3.0501
     3.1161   3.1399   3.1405   3.1483   3.1491   3.1704   3.1781   3.1791
     3.1853   3.5415   3.5471   3.5478   3.5499   3.5510   3.5589   3.8168
     3.8301   3.8478   3.8532   3.8537   3.8544   4.1770   4.2274   4.2294
     4.2302   4.2393   4.2905   4.3507   4.3563   4.3568   4.6237   4.6598
     4.6610   4.6667   4.6681   4.7006   4.7050   4.7058   4.7065   4.9637
     5.0019   5.0595   5.1244   5.3464   5.3469   5.3532   5.3876   5.3899
     5.3930   5.5855   5.5917   5.9446   5.9450   5.9471   6.5003   6.5168
     7.4719   7.6499   7.8061   8.0758   8.0946   8.0954   8.1486   8.5972
     8.5980   8.6022   8.6248   8.6258   8.6802   8.9000   8.9075   8.9418
     8.9497   8.9504   9.1270   9.1748   9.1850   9.1860   9.2193   9.2638
     9.2711   9.2716

          k = 0.2500 0.2500-0.5000 ( 36310 PWs)   bands (ev):

    -5.7599  -5.7588  -5.2403  -5.2381  -5.2379  -5.2372  -4.6994  -4.6985
    -4.2383  -4.2364  -4.1655  -4.1638  -4.1637  -4.1628  -3.4752  -3.4736
    -3.2966  -3.2955  -3.1999  -3.1990  -3.1052  -3.1034  -3.1033  -3.1020
    -3.0970  -3.0962  -2.7558  -2.7551  -2.7551  -2.7533  -2.1181  -2.1171
    -1.2212  -1.2210  -0.7246  -0.7222  -0.7220  -0.7216  -0.6386  -0.6373
    -0.4563  -0.4545  -0.3850  -0.3838  -0.2748  -0.2744  -0.2739  -0.2721
     0.0872   0.0886   0.2577   0.2588   0.8868   0.8889   0.8890   0.8900
     0.9625   0.9638   2.2950   2.2961   2.2964   2.2968   2.3720   2.3728
     2.3733   2.3747   2.5831   2.5842   2.6509   2.6517   2.7450   2.7455
     2.7462   2.7469   3.2515   3.2523   3.3386   3.3399   3.5477   3.5483
     3.5489   3.5497   3.6951   3.6968   3.7665   3.7670   3.7757   3.7767
     3.8264   3.8273   3.9795   3.9813   3.9816   3.9822   4.0272   4.0285
     4.0767   4.0783   4.2151   4.2159   4.2165   4.2170   4.4832   4.4841
     4.4845   4.4847   4.7714   4.7718   4.8363   4.8390   4.8394   4.8396
     4.8441   4.8456   4.8870   4.8898   5.0721   5.0728   5.8088   5.8106
     5.8817   5.8826   5.8830   5.8844   5.9535   5.9557   6.1866   6.1882
     7.7990   7.8001   8.0146   8.0159   8.3081   8.3093   8.6083   8.6096
     8.6099   8.6107   8.6402   8.6407   8.7258   8.7272   8.7274   8.7281
     8.8077   8.8092   8.9164   8.9175   8.9440   8.9443   9.2734   9.2746
     9.2754   9.2758

          k = 0.2500-0.5000-0.5000 ( 36276 PWs)   bands (ev):

    -5.5675  -5.5663  -5.5536  -5.5526  -5.0715  -5.0702  -5.0166  -5.0156
    -4.1946  -4.1930  -4.0016  -4.0008  -3.6282  -3.6267  -3.4778  -3.4769
    -3.3427  -3.3411  -3.3218  -3.3202  -3.2308  -3.2299  -3.1805  -3.1790
    -3.0869  -3.0856  -2.9357  -2.9349  -2.6890  -2.6882  -2.4007  -2.3998
    -0.9567  -0.9558  -0.7510  -0.7500  -0.6318  -0.6302  -0.5501  -0.5486
    -0.5220  -0.5206  -0.4895  -0.4883   0.0356   0.0370   0.0372   0.0385
     0.1107   0.1119   0.1724   0.1738   0.3761   0.3772   0.4097   0.4111
     1.6526   1.6542   1.6739   1.6752   2.3334   2.3342   2.3343   2.3351
     2.9455   2.9461   2.9515   2.9529   2.9548   2.9558   2.9565   2.9574
     2.9658   2.9669   2.9899   2.9905   2.9909   2.9914   2.9943   2.9949
     3.2440   3.2457   3.2818   3.2832   3.7622   3.7633   3.7681   3.7690
     4.0264   4.0265   4.0271   4.0277   4.0280   4.0287   4.0292   4.0293
     4.1737   4.1747   4.1771   4.1783   4.4298   4.4304   4.4335   4.4342
     4.4347   4.4355   4.4381   4.4392   4.6486   4.6497   4.6586   4.6601
     5.4825   5.4839   5.4841   5.4851   5.4942   5.4955   5.4985   5.4999
     5.6085   5.6100   5.6125   5.6140   6.3430   6.3448   6.3462   6.3481
     7.9726   7.9739   8.0266   8.0279   8.3276   8.3288   8.3674   8.3683
     8.3717   8.3722   8.4469   8.4476   8.5427   8.5439   8.6456   8.6467
     8.7362   8.7369   8.7672   8.7674   8.8505   8.8507   8.8598   8.8607
     8.9037   8.9053

          k =-0.5000-0.5000-0.5000 ( 36120 PWs)   bands (ev):

    -5.3813  -5.3789  -5.3787  -5.3781  -5.3503  -5.3486  -5.3484  -5.3474
    -3.8045  -3.8008  -3.8006  -3.8003  -3.3613  -3.3579  -3.3579  -3.3579
    -3.3578  -3.3577  -3.3575  -3.3547  -3.2655  -3.2647  -3.2645  -3.2620
    -3.2169  -3.2155  -3.2154  -3.2137  -2.7859  -2.7854  -2.7853  -2.7838
    -0.5998  -0.5987  -0.5984  -0.5949  -0.2570  -0.2568  -0.2561  -0.2544
    -0.2497  -0.2478  -0.2472  -0.2468  -0.1960  -0.1923  -0.1918  -0.1917
    -0.1916  -0.1914  -0.1909  -0.1904   0.0770   0.0775   0.0777   0.0799
     2.3988   2.3995   2.4001   2.4015   2.4382   2.4394   2.4402   2.4403
     2.8574   2.8582   2.8596   2.8607   2.9155   2.9164   2.9171   2.9173
     2.9174   2.9176   2.9186   2.9193   2.9201   2.9204   2.9214   2.9222
     2.9486   2.9490   2.9502   2.9507   2.9789   2.9795   2.9798   2.9806
     4.3210   4.3215   4.3216   4.3226   4.3507   4.3529   4.3537   4.3541
     4.3541   4.3542   4.3544   4.3547   4.3549   4.3551   4.3554   4.3555
     4.3556   4.3560   4.3564   4.3587   4.3915   4.3918   4.3927   4.3948
     5.9572   5.9600   5.9606   5.9612   5.9637   5.9656   5.9659   5.9665
     5.9671   5.9673   5.9673   5.9678   5.9679   5.9685   5.9686   5.9740
     8.1093   8.1095   8.1097   8.1122   8.2331   8.2357   8.2357   8.2362
     8.2721   8.2726   8.2729   8.2730   8.2753   8.2763   8.2767   8.2769
     8.2771   8.2772   8.2781   8.2791   8.4643   8.4657   8.4661   8.4671
     8.5491   8.5502

          k = 0.2500 0.0000 0.0000 ( 36317 PWs)   bands (ev):

    -6.0916  -5.5359  -5.3035  -5.0115  -4.9804  -4.8033  -4.6333  -4.5607
    -4.4626  -4.4511  -4.3931  -4.2969  -4.2871  -4.0596  -3.9434  -3.8659
    -3.6636  -3.6619  -3.5494  -3.5100  -3.2553  -3.2285  -3.1301  -2.9448
    -2.6681  -2.2927  -2.1630  -2.0539  -1.9366  -1.7917  -1.7159  -1.7092
    -1.6894  -1.5920  -1.5884  -1.5735  -1.1933  -1.0891  -0.9805  -0.8176
    -0.7119  -0.6859  -0.5745  -0.4859  -0.4649  -0.1194  -0.0101   0.1454
     0.1502   0.2137   0.3601   0.5329   0.6201   1.1183   1.3681   1.4342
     1.5637   1.6218   2.2521   2.2741   2.2748   2.2761   2.2991   2.3514
     2.3525   2.3543   2.3578   2.5582   2.5656   2.7276   2.7286   2.7288
     2.7291   2.7930   3.1002   3.1210   3.1717   3.1762   3.1774   3.1845
     3.1860   3.1952   3.1996   3.2020   3.2033   3.2371   3.4487   3.4494
     3.4498   3.4504   3.7130   3.7149   4.0167   4.2520   4.2530   4.3560
     4.4150   4.4161   4.4755   4.7528   4.7555   4.7589   4.7596   4.8452
     4.8850   4.8871   4.9325   4.9632   4.9663   4.9718   4.9889   5.2790
     5.2810   5.3198   5.3361   5.3484   5.3642   5.4086   5.4245   5.4269
     5.4344   5.4345   5.4510   5.4593   5.4663   6.2840   6.5321   6.5477
     7.2502   7.5077   7.6485   7.7877   7.8493   7.8817   7.9719   8.0505
     8.0815   8.2724   8.2852   8.2931   8.4099   8.4517   8.4782   8.8401
     8.9708   9.0412   9.0774   9.0897   9.1452   9.2369   9.2466   9.3194
     9.3576   9.4361

          k = 0.0000 0.2500 0.0000 ( 36317 PWs)   bands (ev):

    -6.0916  -5.5359  -5.3035  -5.0115  -4.9803  -4.8033  -4.6333  -4.5607
    -4.4626  -4.4512  -4.3932  -4.2968  -4.2871  -4.0596  -3.9434  -3.8659
    -3.6636  -3.6620  -3.5494  -3.5100  -3.2553  -3.2285  -3.1301  -2.9448
    -2.6681  -2.2927  -2.1629  -2.0539  -1.9366  -1.7917  -1.7159  -1.7091
    -1.6894  -1.5920  -1.5884  -1.5735  -1.1933  -1.0891  -0.9805  -0.8176
    -0.7119  -0.6859  -0.5745  -0.4859  -0.4649  -0.1194  -0.0101   0.1454
     0.1502   0.2137   0.3601   0.5329   0.6201   1.1183   1.3681   1.4342
     1.5637   1.6218   2.2521   2.2742   2.2748   2.2760   2.2991   2.3513
     2.3526   2.3543   2.3578   2.5582   2.5656   2.7275   2.7285   2.7286
     2.7294   2.7930   3.1001   3.1210   3.1717   3.1761   3.1776   3.1845
     3.1860   3.1952   3.1997   3.2020   3.2033   3.2371   3.4487   3.4492
     3.4500   3.4505   3.7131   3.7148   4.0167   4.2523   4.2528   4.3560
     4.4149   4.4161   4.4755   4.7528   4.7554   4.7590   4.7597   4.8452
     4.8849   4.8871   4.9325   4.9632   4.9663   4.9718   4.9889   5.2792
     5.2809   5.3199   5.3361   5.3483   5.3642   5.4086   5.4247   5.4266
     5.4341   5.4348   5.4509   5.4592   5.4663   6.2840   6.5321   6.5477
     7.2502   7.5077   7.6485   7.7877   7.8493   7.8817   7.9719   8.0505
     8.0815   8.2724   8.2852   8.2931   8.4099   8.4517   8.4782   8.8401
     8.9708   9.0412   9.0774   9.0897   9.1452   9.2368   9.2466   9.3194
     9.3576   9.4361

          k =-0.5000 0.0000 0.0000 ( 36434 PWs)   bands (ev):

    -5.8830  -5.8817  -5.1147  -5.1128  -4.8575  -4.8567  -4.7817  -4.7808
    -4.3710  -4.3698  -4.3494  -4.3478  -4.1418  -4.1406  -3.7355  -3.7333
    -3.6510  -3.6496  -3.3974  -3.3966  -3.2825  -3.2800  -2.9187  -2.9170
    -2.7533  -2.7521  -2.5688  -2.5679  -1.8049  -1.8039  -1.7417  -1.7400
    -1.6538  -1.6524  -1.6053  -1.6046  -0.6935  -0.6918  -0.5366  -0.5350
    -0.4210  -0.4196  -0.3645  -0.3632  -0.3465  -0.3448  -0.1752  -0.1743
    -0.0449  -0.0443   0.0174   0.0181   0.4746   0.4754   1.7445   1.7454
     2.0015   2.0024   2.0248   2.0258   2.1849   2.1854   2.2003   2.2010
     2.2013   2.2023   2.2096   2.2106   2.2179   2.2189   3.0555   3.0557
     3.0562   3.0568   3.0570   3.0574   3.0575   3.0578   3.7650   3.7655
     3.8027   3.8031   3.8122   3.8129   3.8629   3.8631   3.9161   3.9168
     3.9178   3.9185   3.9526   3.9534   3.9541   3.9543   3.9552   3.9561
     3.9624   3.9636   3.9913   3.9921   4.0446   4.0458   4.0545   4.0559
     4.1022   4.1026   5.1839   5.1841   5.2035   5.2037   5.2084   5.2094
     5.2111   5.2123   5.2403   5.2409   5.3670   5.3684   5.3823   5.3833
     5.3972   5.3983   5.4092   5.4107   5.9194   5.9199   5.9249   5.9256
     7.3076   7.3087   8.2809   8.2816   8.6959   8.6967   8.7215   8.7220
     8.7427   8.7431   8.8164   8.8167   8.8398   8.8407   8.8837   8.8849
     8.9670   8.9676   9.0596   9.0604   9.0695   9.0699   9.2730   9.2734
     9.3012   9.3017

          k = 0.0000-0.5000 0.0000 ( 36434 PWs)   bands (ev):

    -5.8825  -5.8821  -5.1144  -5.1131  -4.8579  -4.8562  -4.7820  -4.7804
    -4.3709  -4.3699  -4.3496  -4.3475  -4.1422  -4.1402  -3.7348  -3.7341
    -3.6509  -3.6496  -3.3973  -3.3966  -3.2819  -3.2806  -2.9185  -2.9172
    -2.7532  -2.7522  -2.5689  -2.5678  -1.8054  -1.8035  -1.7417  -1.7400
    -1.6538  -1.6524  -1.6055  -1.6044  -0.6930  -0.6922  -0.5367  -0.5350
    -0.4210  -0.4196  -0.3645  -0.3632  -0.3465  -0.3449  -0.1752  -0.1743
    -0.0449  -0.0444   0.0174   0.0182   0.4748   0.4752   1.7446   1.7453
     2.0015   2.0024   2.0248   2.0258   2.1847   2.1855   2.2004   2.2012
     2.2012   2.2022   2.2097   2.2103   2.2180   2.2187   3.0552   3.0558
     3.0564   3.0566   3.0570   3.0571   3.0576   3.0582   3.7650   3.7655
     3.8026   3.8032   3.8122   3.8129   3.8628   3.8632   3.9168   3.9168
     3.9178   3.9178   3.9526   3.9536   3.9541   3.9543   3.9553   3.9558
     3.9626   3.9633   3.9913   3.9921   4.0449   4.0455   4.0547   4.0556
     4.1022   4.1027   5.1836   5.1842   5.2035   5.2038   5.2085   5.2094
     5.2112   5.2124   5.2402   5.2410   5.3677   5.3678   5.3824   5.3832
     5.3973   5.3983   5.4092   5.4106   5.9199   5.9200   5.9249   5.9250
     7.3080   7.3083   8.2811   8.2814   8.6959   8.6967   8.7214   8.7222
     8.7426   8.7433   8.8162   8.8168   8.8397   8.8408   8.8836   8.8850
     8.9671   8.9675   9.0596   9.0605   9.0695   9.0699   9.2731   9.2735
     9.3011   9.3018

          k = 0.0000-0.2500 0.2500 ( 36395 PWs)   bands (ev):

    -6.0252  -5.5313  -5.4728  -5.0091  -4.9541  -4.9210  -4.5926  -4.5500
    -4.4882  -4.4136  -4.3969  -4.3518  -4.2033  -4.0793  -4.0150  -3.7406
    -3.5775  -3.5048  -3.3947  -3.3113  -3.2400  -3.2140  -2.9158  -2.9119
    -2.7198  -2.6881  -2.4898  -2.4101  -2.3886  -2.0686  -2.0271  -1.9492
    -1.5400  -1.2703  -1.2399  -0.9230  -0.8678  -0.8491  -0.8184  -0.7321
    -0.7193  -0.6481  -0.5782  -0.4183  -0.2349  -0.2011  -0.1893  -0.1652
    -0.1622  -0.0990   0.5827   0.6807   0.9903   0.9945   1.0231   1.0351
     1.4177   1.4871   2.0820   2.1178   2.1973   2.2475   2.2497   2.2531
     2.3080   2.3682   2.5460   2.5501   2.7350   2.7357   2.7395   2.7415
     2.8109   2.8149   2.9359   3.1440   3.1460   3.4100   3.4112   3.4394
     3.4414   3.4770   3.4780   3.5732   3.5742   3.6094   3.6131   3.6509
     3.6527   3.6547   3.6566   3.7362   3.7649   3.9686   3.9693   4.2930
     4.2948   4.3970   4.4024   4.5557   4.5600   4.6060   4.6094   4.6558
     4.7992   4.8007   4.8021   4.8072   4.8082   4.8090   4.9784   4.9819
     5.1166   5.1415   5.2048   5.2097   5.3213   5.3500   5.4226   5.4239
     5.4263   5.4282   5.5737   5.6020   5.6072   5.9891   6.2401   6.7679
     7.4919   7.6771   7.7560   7.8948   7.9327   8.1333   8.1546   8.3239
     8.4855   8.4915   8.4974   8.5228   8.6932   8.7183   8.7476   8.9224
     9.0812   9.0956   9.1250   9.1549   9.1885   9.2241   9.2774   9.4024
     9.4242   9.5223

          k = 0.2500 0.0000-0.2500 ( 36395 PWs)   bands (ev):

    -6.0252  -5.5314  -5.4728  -5.0090  -4.9541  -4.9210  -4.5926  -4.5502
    -4.4881  -4.4136  -4.3968  -4.3517  -4.2033  -4.0793  -4.0151  -3.7408
    -3.5775  -3.5048  -3.3948  -3.3109  -3.2398  -3.2144  -2.9155  -2.9119
    -2.7197  -2.6882  -2.4897  -2.4097  -2.3891  -2.0692  -2.0274  -1.9489
    -1.5403  -1.2699  -1.2391  -0.9220  -0.8684  -0.8493  -0.8174  -0.7319
    -0.7193  -0.6484  -0.5780  -0.4191  -0.2356  -0.2010  -0.1901  -0.1648
    -0.1634  -0.0990   0.5835   0.6814   0.9912   0.9944   1.0227   1.0357
     1.4173   1.4867   2.0819   2.1170   2.1967   2.2478   2.2500   2.2536
     2.3076   2.3678   2.5458   2.5501   2.7355   2.7359   2.7398   2.7420
     2.8109   2.8148   2.9355   3.1444   3.1463   3.4095   3.4108   3.4399
     3.4413   3.4770   3.4779   3.5730   3.5741   3.6100   3.6138   3.6513
     3.6524   3.6546   3.6560   3.7364   3.7653   3.9684   3.9696   4.2934
     4.2952   4.3966   4.4015   4.5559   4.5589   4.6056   4.6086   4.6564
     4.7997   4.8009   4.8021   4.8070   4.8075   4.8096   4.9782   4.9818
     5.1165   5.1414   5.2050   5.2099   5.3222   5.3503   5.4221   5.4244
     5.4263   5.4282   5.5728   5.6014   5.6062   5.9899   6.2402   6.7689
     7.4923   7.6773   7.7564   7.8947   7.9326   8.1333   8.1544   8.3242
     8.4854   8.4918   8.4976   8.5234   8.6927   8.7184   8.7477   8.9222
     9.0809   9.0952   9.1255   9.1544   9.1885   9.2236   9.2775   9.4023
     9.4242   9.5225

          k =-0.2500 0.0000-0.2500 ( 36395 PWs)   bands (ev):

    -6.0252  -5.5314  -5.4728  -5.0090  -4.9541  -4.9210  -4.5926  -4.5500
    -4.4883  -4.4138  -4.3968  -4.3518  -4.2033  -4.0790  -4.0151  -3.7408
    -3.5780  -3.5046  -3.3943  -3.3114  -3.2400  -3.2140  -2.9156  -2.9118
    -2.7196  -2.6883  -2.4903  -2.4097  -2.3884  -2.0692  -2.0274  -1.9488
    -1.5404  -1.2698  -1.2391  -0.9232  -0.8684  -0.8482  -0.8184  -0.7318
    -0.7182  -0.6484  -0.5780  -0.4191  -0.2349  -0.2020  -0.1893  -0.1661
    -0.1619  -0.0997   0.5835   0.6813   0.9900   0.9951   1.0239   1.0350
     1.4173   1.4867   2.0819   2.1170   2.1973   2.2479   2.2500   2.2525
     2.3077   2.3680   2.5459   2.5500   2.7352   2.7365   2.7398   2.7418
     2.8109   2.8148   2.9355   3.1444   3.1463   3.4101   3.4103   3.4393
     3.4419   3.4770   3.4779   3.5736   3.5736   3.6102   3.6137   3.6507
     3.6526   3.6553   3.6558   3.7363   3.7653   3.9688   3.9691   4.2934
     4.2953   4.3964   4.4017   4.5548   4.5601   4.6057   4.6085   4.6563
     4.7999   4.8008   4.8021   4.8075   4.8081   4.8083   4.9783   4.9818
     5.1166   5.1414   5.2043   5.2098   5.3218   5.3513   5.4231   5.4234
     5.4265   5.4279   5.5729   5.6015   5.6062   5.9899   6.2402   6.7689
     7.4924   7.6772   7.7561   7.8948   7.9326   8.1332   8.1547   8.3236
     8.4858   8.4918   8.4977   8.5234   8.6927   8.7185   8.7477   8.9220
     9.0812   9.0954   9.1249   9.1544   9.1886   9.2246   9.2774   9.4024
     9.4240   9.5223

          k = 0.2500-0.2500 0.0000 ( 36395 PWs)   bands (ev):

    -6.0244  -5.4619  -5.4607  -5.2494  -5.0015  -4.7224  -4.7208  -4.4913
    -4.4888  -4.4294  -4.4280  -4.0440  -4.0426  -3.9313  -3.9294  -3.8928
    -3.8914  -3.6242  -3.6226  -3.5248  -3.0354  -3.0343  -2.8990  -2.8212
    -2.8196  -2.6005  -2.5989  -2.3177  -2.3170  -2.1226  -2.1206  -1.8079
    -1.6577  -1.1902  -1.1889  -0.9537  -0.9517  -0.7674  -0.7667  -0.6906
    -0.6893  -0.6465  -0.6456  -0.4440  -0.3892  -0.3452  -0.3432  -0.1188
     0.0743   0.0752   0.6478   0.6490   0.7300   0.7311   1.2121   1.2126
     1.5024   1.5041   2.0310   2.0803   2.1307   2.2495   2.2502   2.3050
     2.3055   2.4163   2.5484   2.5493   2.6726   2.6730   2.8037   2.8041
     2.8073   2.8082   2.9345   3.1457   3.1463   3.4076   3.4089   3.4415
     3.4422   3.4780   3.4783   3.5733   3.5743   3.6045   3.6055   3.6217
     3.6224   3.6828   3.6838   3.7343   3.7645   3.9685   3.9692   4.2926
     4.2930   4.4012   4.4028   4.5585   4.5731   4.6068   4.6086   4.6524
     4.7571   4.7957   4.7966   4.8149   4.8157   4.8450   4.9764   4.9767
     5.0855   5.1786   5.1794   5.2369   5.2598   5.3984   5.3994   5.4111
     5.4521   5.4529   5.5738   5.6047   5.6068   5.9893   6.2334   6.7744
     7.5536   7.6408   7.6416   7.9447   7.9460   8.1236   8.2066   8.2079
     8.2620   8.5086   8.6626   8.7116   8.7127   8.7483   8.7909   8.9153
     8.9158   9.0999   9.1003   9.1834   9.1847   9.3192   9.3197   9.4300
     9.4316   9.5207

          k =-0.2500-0.2500 0.0000 ( 36395 PWs)   bands (ev):

    -6.0196  -5.4802  -5.4790  -5.2323  -4.9204  -4.7838  -4.7819  -4.5068
    -4.3727  -4.3716  -4.3454  -4.2683  -4.1121  -3.9758  -3.9748  -3.7926
    -3.7807  -3.7792  -3.3501  -3.2312  -3.2302  -3.1938  -3.0630  -3.0095
    -2.9854  -2.4886  -2.4877  -2.2471  -2.0145  -2.0130  -1.9571  -1.8946
    -1.5758  -1.2887  -1.2831  -1.2816  -1.1790  -0.9607  -0.8132  -0.8116
    -0.5400  -0.5077  -0.4174  -0.3365  -0.3234  -0.3218  -0.3150  -0.0498
     0.1044   0.1053   0.2146   0.8244   0.8252   0.9873   1.1036   1.1044
     1.4792   1.4807   1.9704   2.0745   2.1135   2.2488   2.2491   2.2499
     2.3678   2.4895   2.5475   2.5485   2.7171   2.7175   2.7552   2.7556
     2.7942   2.8278   2.9361   3.1447   3.1453   3.4058   3.4072   3.4291
     3.4531   3.4547   3.5028   3.5587   3.5891   3.6116   3.6126   3.6233
     3.6252   3.6875   3.6884   3.7314   3.7637   3.9690   3.9697   4.2932
     4.2936   4.3568   4.4324   4.5539   4.5639   4.5756   4.6353   4.6570
     4.7200   4.7970   4.7975   4.8133   4.8144   4.8840   4.9757   4.9760
     5.1282   5.1312   5.2121   5.2314   5.2877   5.3605   5.4061   5.4065
     5.4460   5.4480   5.5715   5.6005   5.6024   5.9922   6.2239   6.7820
     7.5554   7.6017   7.8566   7.9306   7.9317   7.9954   8.2883   8.3410
     8.4033   8.5520   8.5556   8.5680   8.5884   8.6456   8.7260   8.7272
     9.1162   9.1173   9.1458   9.1465   9.3003   9.3009   9.3282   9.3592
     9.3594   9.3811

          k = 0.2500 0.0000 0.5000 ( 36408 PWs)   bands (ev):

    -5.8310  -5.8298  -5.2889  -5.2878  -4.7895  -4.7882  -4.7487  -4.7477
    -4.4842  -4.4825  -4.2756  -4.2747  -4.2411  -4.2401  -3.5190  -3.5175
    -3.5115  -3.5104  -3.2138  -3.2130  -3.1291  -3.1275  -2.9258  -2.9243
    -2.8489  -2.8474  -2.8249  -2.8239  -2.5055  -2.5044  -1.9817  -1.9815
    -1.4175  -1.4168  -0.8382  -0.8381  -0.6133  -0.6117  -0.5991  -0.5982
    -0.5821  -0.5804  -0.5508  -0.5493  -0.4998  -0.4986  -0.1258  -0.1251
     0.3362   0.3373   0.3538   0.3552   0.3757   0.3773   1.1335   1.1340
     1.6254   1.6271   1.6471   1.6487   2.0355   2.0359   2.4495   2.4501
     2.4634   2.4639   2.4867   2.4868   2.5709   2.5717   2.8857   2.8859
     2.9967   2.9970   3.3101   3.3102   3.3890   3.3893   3.5476   3.5479
     3.5497   3.5500   3.6502   3.6508   3.6876   3.6881   3.7958   3.7965
     3.8520   3.8526   4.0503   4.0514   4.0636   4.0646   4.1427   4.1432
     4.1906   4.1923   4.2024   4.2036   4.3637   4.3640   4.4183   4.4186
     4.4895   4.4905   4.4924   4.4935   4.6212   4.6214   4.9367   4.9377
     4.9491   4.9505   5.1425   5.1434   5.1437   5.1448   5.3857   5.3874
     5.3943   5.3965   5.6201   5.6204   6.0018   6.0023   6.3428   6.3431
     7.7115   7.7124   8.0645   8.0649   8.5203   8.5209   8.6209   8.6216
     8.7090   8.7093   8.9785   8.9796   9.0031   9.0034   9.0449   9.0456
     9.0658   9.0664   9.1072   9.1075   9.2622   9.2631   9.2998   9.3008
     9.3033   9.3043

          k =-0.5000-0.2500 0.0000 ( 36408 PWs)   bands (ev):

    -5.8194  -5.8089  -5.2971  -5.2552  -5.0732  -5.0367  -4.6706  -4.5386
    -4.3424  -4.3311  -4.2921  -4.1842  -3.9986  -3.9419  -3.7909  -3.7703
    -3.6825  -3.6463  -3.4381  -3.3792  -3.2256  -3.1996  -2.9694  -2.9636
    -2.8275  -2.6726  -2.5871  -2.4698  -2.4603  -2.4061  -1.9936  -1.8989
    -1.4836  -1.3986  -0.9276  -0.8738  -0.8519  -0.7792  -0.7500  -0.7070
    -0.6466  -0.6138  -0.3676  -0.3449  -0.3299  -0.2655  -0.2481  -0.0710
     0.1096   0.2042   0.3987   0.4368   0.4736   0.5499   1.1221   1.1960
     1.3713   1.4625   1.7592   1.8625   2.0330   2.0340   2.3811   2.4432
     2.4561   2.4866   2.4879   2.5234   2.5825   2.5847   2.8733   2.8813
     2.9958   2.9965   3.3094   3.3096   3.3856   3.3899   3.4675   3.5433
     3.5567   3.6257   3.6534   3.6544   3.6868   3.6874   3.7929   3.7957
     3.8540   3.8547   4.0632   4.0662   4.0670   4.0706   4.1386   4.1405
     4.1582   4.1781   4.2024   4.2119   4.3613   4.3627   4.4181   4.4194
     4.4441   4.4882   4.4956   4.5348   4.6143   4.6179   4.9208   4.9379
     4.9567   4.9759   5.1121   5.1230   5.1730   5.1836   5.3635   5.3693
     5.4102   5.4123   5.6129   5.6155   6.0019   6.0066   6.3401   6.3466
     7.7204   7.7331   8.0607   8.0998   8.4923   8.5414   8.5856   8.6030
     8.7217   8.7621   8.8572   8.8709   8.9406   8.9576   8.9716   8.9810
     9.0410   9.0893   9.0975   9.1196   9.1831   9.2032   9.2056   9.2121
     9.2327   9.3294

          k = 0.0000-0.5000 0.2500 ( 36408 PWs)   bands (ev):

    -5.8173  -5.8169  -5.3342  -5.3334  -4.8063  -4.8046  -4.7259  -4.7242
    -4.4640  -4.4621  -4.3211  -4.3193  -4.0268  -4.0262  -3.6889  -3.6881
    -3.4465  -3.4452  -3.3850  -3.3839  -3.2506  -3.2498  -2.9746  -2.9733
    -2.8095  -2.8086  -2.5752  -2.5747  -2.4423  -2.4410  -1.9623  -1.9607
    -1.4382  -1.4367  -0.8782  -0.8768  -0.7718  -0.7709  -0.6178  -0.6161
    -0.5710  -0.5695  -0.5421  -0.5408  -0.5170  -0.5156   0.0011   0.0024
     0.3512   0.3521   0.3753   0.3761   0.4196   0.4203   1.0597   1.0610
     1.6405   1.6413   1.6421   1.6431   2.0337   2.0341   2.4494   2.4507
     2.4618   2.4630   2.4871   2.4878   2.5849   2.5850   2.8781   2.8797
     2.9945   2.9946   3.3092   3.3097   3.3924   3.3925   3.5451   3.5464
     3.5500   3.5513   3.6491   3.6493   3.6904   3.6910   3.7930   3.7940
     3.8559   3.8564   4.0550   4.0558   4.0641   4.0648   4.1409   4.1418
     4.1867   4.1872   4.1959   4.1967   4.3616   4.3621   4.4245   4.4256
     4.4876   4.4883   4.4891   4.4900   4.6167   4.6183   4.9510   4.9519
     4.9555   4.9565   5.1443   5.1453   5.1458   5.1469   5.3831   5.3835
     5.3841   5.3847   5.6194   5.6197   6.0046   6.0063   6.3376   6.3394
     7.7004   7.7011   8.1006   8.1016   8.5626   8.5637   8.6652   8.6655
     8.6730   8.6732   8.8346   8.8352   8.8957   8.8960   9.0099   9.0104
     9.0379   9.0386   9.1038   9.1045   9.1085   9.1093   9.2412   9.2421
     9.2768   9.2773

          k = 0.2500-0.5000 0.0000 ( 36408 PWs)   bands (ev):

    -5.8194  -5.8089  -5.2971  -5.2552  -5.0732  -5.0367  -4.6706  -4.5386
    -4.3424  -4.3311  -4.2921  -4.1842  -3.9986  -3.9419  -3.7909  -3.7703
    -3.6825  -3.6463  -3.4381  -3.3792  -3.2255  -3.1996  -2.9694  -2.9636
    -2.8275  -2.6726  -2.5871  -2.4698  -2.4604  -2.4061  -1.9936  -1.8989
    -1.4836  -1.3986  -0.9276  -0.8738  -0.8519  -0.7792  -0.7500  -0.7070
    -0.6466  -0.6138  -0.3676  -0.3449  -0.3299  -0.2655  -0.2481  -0.0710
     0.1096   0.2042   0.3986   0.4368   0.4736   0.5499   1.1222   1.1960
     1.3713   1.4625   1.7592   1.8625   2.0331   2.0339   2.3811   2.4432
     2.4561   2.4866   2.4879   2.5234   2.5826   2.5846   2.8733   2.8813
     2.9958   2.9965   3.3094   3.3096   3.3856   3.3899   3.4675   3.5433
     3.5567   3.6257   3.6535   3.6543   3.6869   3.6872   3.7930   3.7957
     3.8542   3.8545   4.0632   4.0660   4.0672   4.0706   4.1387   4.1405
     4.1583   4.1781   4.2024   4.2119   4.3613   4.3626   4.4181   4.4194
     4.4441   4.4882   4.4956   4.5348   4.6143   4.6179   4.9208   4.9379
     4.9567   4.9759   5.1121   5.1230   5.1730   5.1836   5.3636   5.3693
     5.4102   5.4123   5.6129   5.6155   6.0019   6.0066   6.3401   6.3465
     7.7204   7.7330   8.0607   8.0998   8.4923   8.5414   8.5856   8.6031
     8.7217   8.7621   8.8572   8.8709   8.9406   8.9576   8.9716   8.9810
     9.0411   9.0918   9.1196   9.1831   9.2033   9.2055   9.2120   9.2326
     9.3293   9.3704

          k =-0.5000 0.0000 0.2500 ( 36408 PWs)   bands (ev):

    -5.8178  -5.8165  -5.3345  -5.3330  -4.8059  -4.8050  -4.7255  -4.7246
    -4.4637  -4.4624  -4.3207  -4.3197  -4.0270  -4.0260  -3.6896  -3.6874
    -3.4465  -3.4452  -3.3856  -3.3833  -3.2505  -3.2498  -2.9748  -2.9731
    -2.8096  -2.8085  -2.5754  -2.5745  -2.4422  -2.4412  -1.9618  -1.9612
    -1.4376  -1.4373  -0.8781  -0.8770  -0.7716  -0.7711  -0.6178  -0.6161
    -0.5711  -0.5694  -0.5421  -0.5407  -0.5170  -0.5156   0.0014   0.0021
     0.3511   0.3522   0.3752   0.3763   0.4195   0.4203   1.0603   1.0605
     1.6403   1.6414   1.6421   1.6432   2.0337   2.0342   2.4496   2.4505
     2.4621   2.4628   2.4875   2.4875   2.5846   2.5853   2.8787   2.8790
     2.9945   2.9947   3.3094   3.3094   3.3922   3.3926   3.5455   3.5462
     3.5502   3.5510   3.6488   3.6496   3.6904   3.6910   3.7931   3.7938
     3.8558   3.8565   4.0552   4.0556   4.0642   4.0648   4.1410   4.1416
     4.1864   4.1875   4.1956   4.1971   4.3616   4.3621   4.4248   4.4253
     4.4877   4.4885   4.4890   4.4899   4.6175   4.6176   4.9507   4.9520
     4.9554   4.9568   5.1444   5.1455   5.1457   5.1468   5.3824   5.3836
     5.3840   5.3854   5.6194   5.6197   6.0052   6.0057   6.3383   6.3387
     7.7003   7.7012   8.1009   8.1014   8.5629   8.5633   8.6653   8.6655
     8.6727   8.6736   8.8347   8.8351   8.8957   8.8960   9.0100   9.0103
     9.0378   9.0388   9.1040   9.1044   9.1084   9.1092   9.2413   9.2420
     9.2766   9.2775

          k =-0.5000 0.0000 0.5000 ( 36332 PWs)   bands (ev):

    -5.6277  -5.6257  -5.6256  -5.6247  -4.6619  -4.6597  -4.6594  -4.6593
    -4.5637  -4.5624  -4.5622  -4.5614  -3.5621  -3.5591  -3.5591  -3.5576
    -3.3678  -3.3665  -3.3664  -3.3645  -3.1585  -3.1573  -3.1573  -3.1550
    -2.9909  -2.9898  -2.9897  -2.9883  -2.2005  -2.2000  -2.1999  -2.1986
    -1.1720  -1.1707  -1.1705  -1.1692  -0.6915  -0.6911  -0.6909  -0.6880
    -0.6247  -0.6224  -0.6221  -0.6217   0.1587   0.1599   0.1599   0.1613
     0.2524   0.2532   0.2533   0.2547   0.9791   0.9794   0.9801   0.9817
     0.9869   0.9885   0.9890   0.9894   2.1266   2.1271   2.1272   2.1277
     2.9913   2.9921   2.9927   2.9931   2.9944   2.9947   2.9953   2.9961
     3.1059   3.1063   3.1070   3.1071   3.1118   3.1119   3.1125   3.1129
     3.7172   3.7175   3.7179   3.7186   3.7662   3.7664   3.7670   3.7671
     3.8050   3.8055   3.8062   3.8067   4.1125   4.1133   4.1133   4.1141
     4.4058   4.4061   4.4068   4.4074   4.4099   4.4105   4.4112   4.4116
     4.7261   4.7276   4.7282   4.7286   4.7352   4.7356   4.7361   4.7377
     5.0003   5.0006   5.0007   5.0010   5.0383   5.0391   5.0392   5.0395
     5.0436   5.0437   5.0439   5.0449   6.4991   6.4996   6.4997   6.5002
     7.9319   7.9322   7.9323   7.9332   8.7126   8.7130   8.7133   8.7139
     8.7759   8.7765   8.7772   8.7775   8.9453   8.9457   8.9460   8.9467
     8.9911   8.9912   8.9917   8.9919   9.4097   9.4102   9.4106   9.4112
     9.7348   9.7357

          k =-0.5000 0.5000 0.0000 ( 36332 PWs)   bands (ev):

    -5.6230  -5.6218  -5.5997  -5.5987  -4.9218  -4.9198  -4.8434  -4.8418
    -4.1826  -4.1812  -4.0967  -4.0958  -3.9081  -3.9062  -3.6803  -3.6783
    -3.4771  -3.4754  -3.4754  -3.4739  -3.2202  -3.2186  -3.2186  -3.2169
    -2.9302  -2.9295  -2.6034  -2.6026  -2.2730  -2.2710  -2.1662  -2.1646
    -1.1974  -1.1958  -1.1107  -1.1093  -0.9362  -0.9338  -0.5851  -0.5829
    -0.5826  -0.5825  -0.3897  -0.3888  -0.2573  -0.2549   0.2137   0.2157
     0.2160   0.2166   0.5674   0.5688   0.7256   0.7267   0.8417   0.8427
     1.0656   1.0663   1.1922   1.1926   2.1262   2.1269   2.1271   2.1277
     2.8946   2.8951   2.9906   2.9912   2.9921   2.9926   3.0864   3.0869
     3.0915   3.0921   3.1096   3.1106   3.1109   3.1112   3.1331   3.1345
     3.7484   3.7495   3.7525   3.7533   3.7607   3.7610   3.7663   3.7667
     3.7679   3.7680   3.7721   3.7726   4.1111   4.1122   4.1123   4.1135
     4.3990   4.3998   4.4132   4.4140   4.4144   4.4148   4.4304   4.4313
     4.6556   4.6569   4.6911   4.6916   4.7658   4.7668   4.8075   4.8086
     4.9756   4.9767   4.9776   4.9780   4.9939   4.9942   4.9967   4.9971
     5.1010   5.1040   5.1044   5.1064   6.4974   6.4998   6.5035   6.5059
     7.9346   7.9359   7.9709   7.9722   8.6745   8.6762   8.7092   8.7102
     8.7105   8.7110   8.8407   8.8410   8.8607   8.8614   8.8674   8.8685
     9.0237   9.0255   9.1242   9.1258   9.3633   9.3636   9.5577   9.5580
     9.5590   9.5597

          k =-0.2500-0.2500 0.2500 ( 36381 PWs)   bands (ev):

    -5.9535  -5.4610  -5.4184  -5.4173  -4.9718  -4.9702  -4.8635  -4.4529
    -4.3192  -4.3180  -4.3151  -4.1518  -4.1502  -3.9384  -3.9373  -3.6807
    -3.6800  -3.5838  -3.3089  -3.1667  -3.1173  -3.0708  -3.0441  -3.0432
    -3.0200  -2.6634  -2.5547  -2.5537  -2.4551  -2.4541  -2.2115  -2.0085
    -1.2657  -1.1892  -0.8702  -0.8690  -0.8213  -0.8030  -0.8006  -0.7418
    -0.5895  -0.5230  -0.5226  -0.4732  -0.4644  -0.3653  -0.3310  -0.0132
     0.3189   0.3200   0.3212   0.4072   0.4092   0.6569   1.2384   1.3061
     1.3072   1.6639   1.6648   1.6770   2.3267   2.3665   2.3674   2.3751
     2.3759   2.4285   2.4314   2.4321   2.4325   3.0214   3.0363   3.0504
     3.1155   3.1398   3.1405   3.1477   3.1486   3.1701   3.1777   3.1789
     3.1844   3.5417   3.5473   3.5480   3.5497   3.5508   3.5590   3.8167
     3.8301   3.8471   3.8526   3.8533   3.8543   4.1781   4.2279   4.2297
     4.2306   4.2400   4.2909   4.3508   4.3557   4.3567   4.6239   4.6609
     4.6613   4.6680   4.6685   4.7010   4.7049   4.7054   4.7066   4.9646
     5.0017   5.0593   5.1232   5.3455   5.3466   5.3531   5.3897   5.3901
     5.3940   5.5847   5.5921   5.9432   5.9447   5.9469   6.4992   6.5169
     7.4714   7.6498   7.8055   8.0758   8.0939   8.0956   8.1482   8.5964
     8.5977   8.6024   8.6249   8.6260   8.6806   8.9005   8.9077   8.9419
     8.9497   8.9507   9.1317   9.1754   9.1798   9.1851   9.2186   9.2628
     9.2710   9.2716

          k =-0.2500 0.2500-0.2500 ( 36381 PWs)   bands (ev):

    -5.9587  -5.4709  -5.3989  -5.3978  -4.9496  -4.9343  -4.9330  -4.6057
    -4.3791  -4.3778  -4.1399  -4.0443  -4.0427  -3.8588  -3.8573  -3.7270
    -3.7258  -3.6700  -3.6684  -3.3796  -2.9520  -2.8849  -2.8844  -2.7926
    -2.7910  -2.6506  -2.6373  -2.6356  -2.5133  -2.5121  -2.3921  -2.3912
    -0.9265  -0.9254  -0.8311  -0.8301  -0.7489  -0.7409  -0.7401  -0.6568
    -0.6558  -0.6136  -0.5715  -0.5694  -0.5645  -0.5369  -0.5357   0.2961
     0.3025   0.3036   0.3716   0.3728   0.3946   0.3951   1.2482   1.3205
     1.3225   1.6740   1.7000   1.7010   2.3746   2.3751   2.3762   2.3768
     2.3793   2.3802   2.4309   2.4316   2.4466   3.0333   3.0355   3.0362
     3.1380   3.1387   3.1398   3.1404   3.1459   3.1465   3.1527   3.1683
     3.1691   3.5482   3.5491   3.5503   3.5506   3.5509   3.5519   3.8304
     3.8309   3.8312   3.8501   3.8510   3.8707   4.2257   4.2266   4.2305
     4.2373   4.2393   4.2410   4.3548   4.3572   4.3577   4.6590   4.6598
     4.6633   4.6651   4.6682   4.6701   4.7004   4.7079   4.7086   4.9667
     5.0482   5.0602   5.0607   5.3437   5.3443   5.3469   5.3943   5.3959
     5.3998   5.5896   5.6018   5.9432   5.9442   5.9453   6.5094   6.5109
     7.6060   7.6149   7.6159   8.0448   8.0675   8.0924   8.0932   8.5751
     8.5759   8.5768   8.7794   8.8141   8.8153   8.8850   8.8855   8.8936
     8.9352   8.9358   9.0179   9.1205   9.2338   9.2591   9.2613   9.3325
     9.3330   9.3837

          k = 0.2500-0.2500-0.2500 ( 36381 PWs)   bands (ev):

    -5.9586  -5.4710  -5.3990  -5.3978  -4.9497  -4.9342  -4.9330  -4.6056
    -4.3791  -4.3777  -4.1398  -4.0445  -4.0428  -3.8588  -3.8573  -3.7270
    -3.7260  -3.6700  -3.6684  -3.3800  -2.9517  -2.8848  -2.8836  -2.7927
    -2.7910  -2.6509  -2.6372  -2.6356  -2.5133  -2.5118  -2.3925  -2.3918
    -0.9266  -0.9238  -0.8314  -0.8303  -0.7485  -0.7409  -0.7402  -0.6567
    -0.6557  -0.6124  -0.5715  -0.5709  -0.5662  -0.5368  -0.5356   0.2952
     0.3026   0.3039   0.3715   0.3727   0.3947   0.3967   1.2474   1.3205
     1.3215   1.6747   1.6997   1.7006   2.3748   2.3754   2.3760   2.3766
     2.3794   2.3801   2.4310   2.4317   2.4471   3.0329   3.0351   3.0356
     3.1387   3.1393   3.1398   3.1408   3.1459   3.1465   3.1537   3.1686
     3.1697   3.5484   3.5489   3.5502   3.5505   3.5511   3.5518   3.8306
     3.8312   3.8315   3.8501   3.8511   3.8716   4.2254   4.2263   4.2300
     4.2365   4.2389   4.2398   4.3547   4.3574   4.3584   4.6586   4.6592
     4.6631   4.6646   4.6678   4.6685   4.7004   4.7080   4.7093   4.9657
     5.0485   5.0607   5.0616   5.3441   5.3452   5.3471   5.3940   5.3946
     5.3980   5.5904   5.6014   5.9437   5.9451   5.9459   6.5101   6.5113
     7.6061   7.6154   7.6165   8.0446   8.0679   8.0922   8.0940   8.5750
     8.5764   8.5776   8.7795   8.8136   8.8149   8.8849   8.8860   8.8935
     8.9352   8.9360   9.0179   9.1211   9.2320   9.2338   9.2572   9.2620
     9.3325   9.3334

          k =-0.2500 0.2500 0.5000 ( 36310 PWs)   bands (ev):

    -5.7663  -5.7651  -5.2161  -5.2141  -5.2139  -5.2130  -4.8041  -4.8027
    -4.2388  -4.2362  -4.2360  -4.2354  -3.7709  -3.7694  -3.7693  -3.7678
    -3.4662  -3.4646  -3.1450  -3.1441  -3.1439  -3.1416  -3.1254  -3.1243
    -2.7200  -2.7180  -2.7179  -2.7166  -2.6075  -2.6066  -2.6064  -2.6050
    -0.8097  -0.8091  -0.8089  -0.8061  -0.7000  -0.6985  -0.6914  -0.6903
    -0.6901  -0.6893  -0.2672  -0.2653  -0.2648  -0.2643  -0.1333  -0.1313
    -0.1310  -0.1305   0.2582   0.2594   0.8883   0.8891   0.8892   0.8915
     0.9532   0.9548   2.3001   2.3005   2.3009   2.3020   2.4234   2.4247
     2.4254   2.4256   2.6154   2.6158   2.6164   2.6170   2.7026   2.7030
     2.7041   2.7044   3.2543   3.2551   3.3266   3.3277   3.5509   3.5514
     3.5521   3.5526   3.7606   3.7615   3.7622   3.7628   3.7703   3.7711
     3.7713   3.7717   3.9770   3.9776   3.9779   3.9798   4.0289   4.0302
     4.0842   4.0856   4.2137   4.2141   4.2146   4.2154   4.4861   4.4863
     4.4868   4.4877   4.8290   4.8293   4.8297   4.8318   4.8381   4.8394
     4.8396   4.8399   4.8402   4.8430   5.0734   5.0742   5.8106   5.8128
     5.8819   5.8832   5.8836   5.8846   5.9485   5.9506   6.1930   6.1945
     7.7749   7.7761   8.1503   8.1513   8.1518   8.1526   8.4955   8.4958
     8.4960   8.4982   8.6121   8.6129   8.7598   8.7607   8.8640   8.8653
     8.8656   8.8666   9.1240   9.1250   9.1253   9.1261   9.1466   9.1478
     9.2467   9.2473

          k =-0.5000-0.2500 0.2500 ( 36310 PWs)   bands (ev):

    -5.7551  -5.7439  -5.2821  -5.2604  -5.2387  -5.1942  -4.8287  -4.7452
    -4.3021  -4.1365  -4.0630  -3.9877  -3.9626  -3.8108  -3.7316  -3.6571
    -3.6020  -3.5501  -3.5009  -3.3066  -3.2985  -3.2211  -2.9558  -2.9449
    -2.7616  -2.7588  -2.6714  -2.6509  -2.5908  -2.5605  -2.4379  -2.3994
    -0.9420  -0.9115  -0.7973  -0.7856  -0.7791  -0.7638  -0.7246  -0.7185
    -0.7164  -0.6373  -0.3816  -0.2178  -0.1967  -0.1873  -0.1692  -0.1098
    -0.1093  -0.0855   0.3232   0.3943   0.8105   0.8269   0.8789   0.9342
     0.9478   0.9822   2.2419   2.2896   2.2946   2.2959   2.4037   2.4221
     2.4386   2.4772   2.6127   2.6163   2.6172   2.6178   2.7013   2.7025
     2.7063   2.7136   3.2385   3.2519   3.3384   3.3395   3.5465   3.5502
     3.5511   3.5636   3.7618   3.7629   3.7637   3.7697   3.7703   3.7711
     3.7715   3.7720   3.9801   3.9809   3.9819   3.9843   4.0296   4.0320
     4.0736   4.0779   4.2122   4.2127   4.2137   4.2146   4.4767   4.4822
     4.4855   4.4866   4.8020   4.8148   4.8203   4.8266   4.8346   4.8359
     4.8433   4.8464   4.8469   4.8743   5.0861   5.0938   5.8052   5.8077
     5.8840   5.8865   5.8875   5.8885   5.9458   5.9499   6.1865   6.1909
     7.7542   7.7961   8.1289   8.1353   8.1718   8.2210   8.5665   8.6135
     8.6249   8.6261   8.6388   8.6421   8.6614   8.6750   8.6828   8.6925
     8.6975   8.7765   9.0922   9.1294   9.1573   9.1906   9.2227   9.2586
     9.3423   9.3458

          k = 0.5000-0.2500-0.2500 ( 36310 PWs)   bands (ev):

    -5.7551  -5.7438  -5.2821  -5.2605  -5.2388  -5.1943  -4.8286  -4.7450
    -4.3021  -4.1363  -4.0631  -3.9876  -3.9625  -3.8112  -3.7316  -3.6575
    -3.6019  -3.5504  -3.5010  -3.3067  -3.2980  -3.2213  -2.9560  -2.9445
    -2.7611  -2.7585  -2.6717  -2.6504  -2.5910  -2.5608  -2.4376  -2.3996
    -0.9415  -0.9122  -0.7968  -0.7866  -0.7786  -0.7649  -0.7242  -0.7199
    -0.7168  -0.6384  -0.3811  -0.2171  -0.1955  -0.1860  -0.1688  -0.1095
    -0.1082  -0.0845   0.3231   0.3942   0.8098   0.8261   0.8781   0.9336
     0.9467   0.9813   2.2425   2.2899   2.2950   2.2963   2.4045   2.4229
     2.4393   2.4779   2.6123   2.6158   2.6168   2.6174   2.7017   2.7027
     2.7066   2.7139   3.2380   3.2514   3.3375   3.3388   3.5476   3.5517
     3.5519   3.5648   3.7616   3.7629   3.7636   3.7700   3.7704   3.7710
     3.7716   3.7723   3.9792   3.9810   3.9812   3.9837   4.0303   4.0328
     4.0730   4.0773   4.2121   4.2130   4.2139   4.2147   4.4762   4.4816
     4.4850   4.4861   4.8017   4.8142   4.8195   4.8262   4.8337   4.8353
     4.8425   4.8457   4.8474   4.8749   5.0854   5.0929   5.8068   5.8092
     5.8844   5.8865   5.8880   5.8887   5.9471   5.9513   6.1856   6.1899
     7.7549   7.7970   8.1289   8.1354   8.1717   8.2212   8.5670   8.6133
     8.6249   8.6263   8.6389   8.6420   8.6613   8.6757   8.6830   8.6928
     8.6976   8.7776   9.0923   9.1296   9.1575   9.1908   9.2229   9.2589
     9.3418   9.3445

          k =-0.2500-0.5000 0.2500 ( 36310 PWs)   bands (ev):

    -5.7550  -5.7439  -5.2821  -5.2605  -5.2387  -5.1942  -4.8286  -4.7452
    -4.3021  -4.1365  -4.0631  -3.9877  -3.9625  -3.8109  -3.7316  -3.6572
    -3.6020  -3.5504  -3.5010  -3.3064  -3.2986  -3.2211  -2.9560  -2.9446
    -2.7618  -2.7587  -2.6714  -2.6504  -2.5906  -2.5609  -2.4375  -2.3997
    -0.9415  -0.9123  -0.7966  -0.7865  -0.7793  -0.7649  -0.7246  -0.7184
    -0.7164  -0.6374  -0.3810  -0.2179  -0.1965  -0.1862  -0.1696  -0.1096
    -0.1088  -0.0847   0.3234   0.3940   0.8108   0.8259   0.8787   0.9338
     0.9468   0.9821   2.2426   2.2894   2.2946   2.2963   2.4047   2.4222
     2.4384   2.4778   2.6123   2.6158   2.6170   2.6179   2.7021   2.7025
     2.7060   2.7137   3.2387   3.2513   3.3381   3.3389   3.5473   3.5504
     3.5515   3.5643   3.7614   3.7628   3.7640   3.7699   3.7704   3.7709
     3.7717   3.7720   3.9800   3.9810   3.9816   3.9836   4.0302   4.0322
     4.0739   4.0770   4.2121   4.2128   4.2135   4.2150   4.4760   4.4822
     4.4850   4.4866   4.8017   4.8149   4.8195   4.8267   4.8348   4.8351
     4.8431   4.8459   4.8471   4.8742   5.0854   5.0938   5.8066   5.8079
     5.8840   5.8865   5.8875   5.8891   5.9468   5.9502   6.1868   6.1898
     7.7545   7.7966   8.1290   8.1359   8.1717   8.2206   8.5669   8.6134
     8.6248   8.6267   8.6388   8.6414   8.6613   8.6754   8.6831   8.6931
     8.6971   8.7770   9.0921   9.1299   9.1576   9.1906   9.2231   9.2584
     9.3415   9.3454

          k =-0.2500 0.5000-0.2500 ( 36310 PWs)   bands (ev):

    -5.7551  -5.7439  -5.2820  -5.2605  -5.2387  -5.1943  -4.8287  -4.7450
    -4.3021  -4.1364  -4.0630  -3.9875  -3.9627  -3.8111  -3.7317  -3.6575
    -3.6019  -3.5501  -3.5008  -3.3067  -3.2981  -3.2213  -2.9558  -2.9449
    -2.7611  -2.7584  -2.6717  -2.6509  -2.5911  -2.5604  -2.4380  -2.3993
    -0.9420  -0.9114  -0.7975  -0.7857  -0.7784  -0.7638  -0.7242  -0.7199
    -0.7169  -0.6384  -0.3817  -0.2170  -0.1956  -0.1872  -0.1685  -0.1100
    -0.1085  -0.0853   0.3228   0.3945   0.8096   0.8271   0.8783   0.9340
     0.9477   0.9814   2.2419   2.2900   2.2948   2.2961   2.4035   2.4228
     2.4395   2.4773   2.6127   2.6165   2.6167   2.6172   2.7015   2.7021
     2.7069   2.7137   3.2379   3.2521   3.3384   3.3387   3.5468   3.5513
     3.5515   3.5640   3.7620   3.7626   3.7637   3.7697   3.7703   3.7710
     3.7714   3.7724   3.9800   3.9808   3.9815   3.9839   4.0301   4.0323
     4.0729   4.0780   4.2125   4.2127   4.2140   4.2142   4.4768   4.4815
     4.4855   4.4860   4.8020   4.8143   4.8202   4.8259   4.8345   4.8355
     4.8428   4.8462   4.8467   4.8749   5.0861   5.0929   5.8062   5.8082
     5.8842   5.8861   5.8877   5.8890   5.9467   5.9503   6.1855   6.1910
     7.7546   7.7965   8.1289   8.1348   8.1718   8.2216   8.5666   8.6134
     8.6252   8.6256   8.6389   8.6426   8.6614   8.6753   8.6828   8.6922
     8.6980   8.7770   9.0924   9.1290   9.1572   9.1909   9.2224   9.2596
     9.3423   9.3449

          k =-0.5000 0.2500 0.5000 ( 36276 PWs)   bands (ev):

    -5.5676  -5.5664  -5.5535  -5.5525  -5.0715  -5.0702  -5.0166  -5.0156
    -4.1947  -4.1930  -4.0017  -4.0008  -3.6282  -3.6268  -3.4778  -3.4770
    -3.3427  -3.3411  -3.3218  -3.3202  -3.2308  -3.2299  -3.1805  -3.1790
    -3.0869  -3.0856  -2.9357  -2.9348  -2.6890  -2.6882  -2.4007  -2.3998
    -0.9567  -0.9558  -0.7509  -0.7500  -0.6318  -0.6302  -0.5502  -0.5486
    -0.5220  -0.5206  -0.4895  -0.4884   0.0356   0.0367   0.0374   0.0386
     0.1110   0.1116   0.1725   0.1736   0.3759   0.3773   0.4096   0.4112
     1.6526   1.6542   1.6738   1.6753   2.3335   2.3340   2.3346   2.3350
     2.9454   2.9462   2.9518   2.9527   2.9548   2.9558   2.9566   2.9572
     2.9661   2.9666   2.9899   2.9902   2.9910   2.9915   2.9943   2.9951
     3.2441   3.2456   3.2819   3.2832   3.7621   3.7633   3.7680   3.7691
     4.0261   4.0266   4.0271   4.0278   4.0279   4.0286   4.0292   4.0296
     4.1740   4.1745   4.1773   4.1780   4.4296   4.4305   4.4332   4.4344
     4.4346   4.4357   4.4381   4.4393   4.6489   4.6495   4.6588   4.6598
     5.4820   5.4839   5.4841   5.4854   5.4947   5.4954   5.4989   5.4993
     5.6083   5.6099   5.6125   5.6141   6.3440   6.3445   6.3465   6.3470
     7.9728   7.9736   8.0271   8.0274   8.3276   8.3288   8.3674   8.3685
     8.3713   8.3724   8.4467   8.4478   8.5428   8.5439   8.6461   8.6462
     8.7360   8.7371   8.7670   8.7676   8.8501   8.8512   8.8598   8.8607
     8.9038   8.9056

          k =-0.5000 0.5000 0.2500 ( 36276 PWs)   bands (ev):

    -5.5608  -5.5596  -5.5360  -5.5349  -5.1106  -5.1090  -5.0631  -5.0618
    -3.8787  -3.8767  -3.8562  -3.8550  -3.7990  -3.7983  -3.7182  -3.7162
    -3.4444  -3.4427  -3.4427  -3.4412  -3.2638  -3.2622  -3.2622  -3.2605
    -2.8906  -2.8899  -2.6621  -2.6614  -2.6367  -2.6352  -2.5697  -2.5688
    -0.8375  -0.8354  -0.8291  -0.8277  -0.7875  -0.7864  -0.4712  -0.4689
    -0.4687  -0.4685  -0.3582  -0.3559  -0.2525  -0.2515   0.0917   0.0938
     0.0940   0.0946   0.3021   0.3032   0.3223   0.3234   0.4190   0.4203
     1.6541   1.6551   1.6900   1.6909   2.3255   2.3265   2.3347   2.3357
     2.8677   2.8684   2.9542   2.9548   2.9555   2.9562   2.9754   2.9767
     2.9895   2.9900   2.9906   2.9911   3.0082   3.0090   3.0422   3.0428
     3.2391   3.2400   3.2478   3.2488   3.7655   3.7668   3.7701   3.7713
     4.0097   4.0101   4.0285   4.0289   4.0293   4.0302   4.0497   4.0508
     4.1722   4.1733   4.1735   4.1745   4.4125   4.4132   4.4352   4.4360
     4.4365   4.4368   4.4616   4.4626   4.6448   4.6453   4.6460   4.6466
     5.4751   5.4758   5.4792   5.4799   5.5002   5.5018   5.5020   5.5036
     5.6104   5.6115   5.6166   5.6179   6.3445   6.3467   6.3495   6.3517
     8.0142   8.0155   8.0550   8.0563   8.2300   8.2313   8.3549   8.3561
     8.3562   8.3571   8.5242   8.5252   8.5793   8.5803   8.5859   8.5870
     8.6971   8.6983   8.7636   8.7641   8.8693   8.8701   9.0697   9.0701
     9.0918   9.0930

     the Fermi energy is     7.0387 ev

!    total energy              =    -742.09953678 Ry
     estimated scf accuracy    <          3.4E-11 Ry
     smearing contrib. (-TS)   =      -0.00012161 Ry
     internal energy E=F+TS    =    -742.09941517 Ry

     The total energy is F=E-TS. E is the sum of the following terms:
     one-electron contribution =     176.86527313 Ry
     hartree contribution      =      33.68672751 Ry
     xc contribution           =    -412.27903885 Ry
     ewald contribution        =    -540.37237696 Ry

     convergence has been achieved in  15 iterations

     Forces acting on atoms (cartesian axes, Ry/au):

     atom    1 type  1   force =     0.00011060   -0.00005180    0.02522773
     atom    2 type  1   force =     0.00000130   -0.00000380    0.02511426
     atom    3 type  1   force =    -0.00000748   -0.00000511    0.02510734
     atom    4 type  1   force =     0.00003130   -0.00000160    0.02514548
     atom    5 type  1   force =     0.00000208   -0.00000109    0.02511688
     atom    6 type  1   force =     0.00012413    0.00006561    0.02524348
     atom    7 type  1   force =     0.00002971   -0.00000056    0.02514666
     atom    8 type  1   force =    -0.00000881    0.00000451    0.02510902
     atom    9 type  1   force =    -0.00009808   -0.00003012    0.02514594
     atom   10 type  1   force =     0.00000157    0.00002224    0.02512395
     atom   11 type  1   force =    -0.00014654    0.00007980    0.02519661
     atom   12 type  1   force =    -0.00000199   -0.00001659    0.02512896
     atom   13 type  1   force =    -0.00007648    0.00002998    0.02514610
     atom   14 type  1   force =     0.00000183   -0.00002115    0.02512446
     atom   15 type  1   force =    -0.00014282   -0.00009136    0.02521351
     atom   16 type  1   force =    -0.00000322    0.00001730    0.02513119
     atom   17 type  2   force =    -0.00427735   -0.00036039   -0.03031035
     atom   18 type  2   force =     0.00000723    0.00000103   -0.02602089
     atom   19 type  2   force =     0.00001444    0.00000091   -0.02602083
     atom   20 type  2   force =     0.00000023   -0.00000192   -0.02614383
     atom   21 type  2   force =     0.00001445   -0.00000013   -0.02602621
     atom   22 type  2   force =    -0.00000074    0.00000112   -0.02603341
     atom   23 type  2   force =    -0.00010707    0.00000088   -0.02603345
     atom   24 type  2   force =     0.00000775    0.00000023   -0.02602615
     atom   25 type  2   force =     0.00002549   -0.00003042   -0.02611823
     atom   26 type  2   force =     0.00003370    0.00003272   -0.02611039
     atom   27 type  2   force =     0.00009358    0.00009258   -0.02617085
     atom   28 type  2   force =     0.00008767   -0.00009262   -0.02618006
     atom   29 type  2   force =     0.00000894    0.00002185   -0.02602998
     atom   30 type  2   force =     0.00000684   -0.00001981   -0.02603344
     atom   31 type  2   force =     0.00001247   -0.00001426   -0.02603889
     atom   32 type  2   force =     0.00001502    0.00001563   -0.02603615
     atom   33 type  1   force =     0.00179804   -0.00159695   -0.02334600
     atom   34 type  1   force =     0.00000549   -0.00002475   -0.02512106
     atom   35 type  1   force =    -0.00000061   -0.00001691   -0.02512079
     atom   36 type  1   force =     0.00001310   -0.00001350   -0.02505231
     atom   37 type  1   force =    -0.00000642   -0.00002158   -0.02510915
     atom   38 type  1   force =     0.00001281   -0.00001717   -0.02510397
     atom   39 type  1   force =     0.00006726   -0.00001118   -0.02510536
     atom   40 type  1   force =     0.00000179   -0.00001522   -0.02511455
     atom   41 type  1   force =    -0.00003033   -0.00000087   -0.02514219
     atom   42 type  1   force =    -0.00000112    0.00000066   -0.02506547
     atom   43 type  1   force =     0.00017638    0.00001727   -0.02491212
     atom   44 type  1   force =    -0.00001059    0.00000478   -0.02514204
     atom   45 type  1   force =     0.00004991    0.00000189   -0.02511484
     atom   46 type  1   force =    -0.00001346    0.00000004   -0.02512931
     atom   47 type  1   force =    -0.00002478   -0.00000342   -0.02512821
     atom   48 type  1   force =    -0.00000045    0.00000038   -0.02511605
     atom   49 type  2   force =     0.00204049    0.00194357    0.02808259
     atom   50 type  2   force =     0.00000892    0.00002096    0.02602876
     atom   51 type  2   force =    -0.00000270    0.00002035    0.02602940
     atom   52 type  2   force =     0.00001153    0.00001298    0.02609443
     atom   53 type  2   force =    -0.00000634    0.00002092    0.02604025
     atom   54 type  2   force =     0.00001166    0.00000810    0.02604366
     atom   55 type  2   force =     0.00005870    0.00001164    0.02604027
     atom   56 type  2   force =     0.00000168    0.00001517    0.02603556
     atom   57 type  2   force =    -0.00002595   -0.00000218    0.02600574
     atom   58 type  2   force =    -0.00000049    0.00000094    0.02608235
     atom   59 type  2   force =     0.00010566   -0.00000092    0.02613800
     atom   60 type  2   force =    -0.00001354   -0.00000252    0.02600636
     atom   61 type  2   force =     0.00005304   -0.00000100    0.02603462
     atom   62 type  2   force =    -0.00001351    0.00000002    0.02602030
     atom   63 type  2   force =    -0.00002510    0.00000209    0.02602143
     atom   64 type  2   force =    -0.00000081    0.00000276    0.02603120

     Total force =     0.205481     Total SCF correction =     0.000010

     Writing all to output data dir ./results3/phonon_fc.save/ :
     XML data file, charge density, pseudopotentials, collected wavefunctions

     init_run     :    435.48s CPU    438.74s WALL (       1 calls)
     electrons    :  14242.56s CPU  14356.11s WALL (       1 calls)
     forces       :    286.88s CPU    288.82s WALL (       1 calls)

     Called by init_run:
     wfcinit      :    431.63s CPU    434.53s WALL (       1 calls)
     potinit      :      0.46s CPU      0.49s WALL (       1 calls)
     hinit0       :      0.74s CPU      0.76s WALL (       1 calls)

     Called by electrons:
     c_bands      :  12857.00s CPU  12952.83s WALL (      16 calls)
     sum_band     :   1339.80s CPU   1352.49s WALL (      16 calls)
     v_of_rho     :      3.05s CPU      3.14s WALL (      16 calls)
     newd         :     44.46s CPU     48.95s WALL (      16 calls)
     mix_rho      :      0.50s CPU      0.51s WALL (      16 calls)

     Called by c_bands:
     init_us_2    :     44.25s CPU     44.65s WALL (    1224 calls)
     cegterg      :  12764.90s CPU  12858.79s WALL (     577 calls)

     Called by *egterg:
     cdiaghg      :    217.97s CPU    218.70s WALL (    3120 calls)
     h_psi        :   6245.11s CPU   6288.90s WALL (    3192 calls)
     s_psi        :   2568.81s CPU   2585.31s WALL (    3192 calls)
     g_psi        :      3.99s CPU      4.02s WALL (    2579 calls)

     Called by h_psi:
     h_psi:calbec :   2938.24s CPU   2954.26s WALL (    3192 calls)
     vloc_psi     :    749.80s CPU    756.51s WALL (    3192 calls)
     add_vuspsi   :   2552.34s CPU   2568.87s WALL (    3192 calls)

     General routines
     calbec       :   4303.04s CPU   4326.11s WALL (    3912 calls)
     fft          :      5.38s CPU      5.44s WALL (     218 calls)
     ffts         :      0.31s CPU      0.31s WALL (      32 calls)
     fftw         :    685.57s CPU    691.30s WALL (  569946 calls)
     interpolate  :      0.42s CPU      0.42s WALL (      16 calls)

     Parallel routines

     PWSCF        :      4h 9m CPU      4h13m WALL


   This run was terminated on:  20:20:44  25Mar2026            

=------------------------------------------------------------------------------=
   JOB DONE.
=------------------------------------------------------------------------------=
